LAMMPS data file via write_data, version 8 Feb 2023, timestep = 2500000

1638 atoms
4 atom types

-0.00699207580237271 26.9349910758039 xlo xhi
-0.008007241480463279 30.84562924147475 ylo yhi
-0.005889048020110366 22.68588904802527 zlo zhi
-1.0005193164039807e-06 -1.000519316403981e-06 -1.000519316403981e-06 xy xz yz

Atom Type Labels

1 Ca
2 H
3 O
4 Si

Masses

1 40.0784
2 1.007947
3 15.99943
4 28.08553

Atoms # charge

3 1 1.421334602970083 3.9526324510949737 2.4324618959796838 6.486878448615294 0 0 0
4 1 1.365642011088804 2.7429858599963954 5.6028881311494 4.383271284273337 0 0 0
1275 2 0.380200858771543 3.525952244821567 5.538631812128844 9.884603577142089 0 0 0
9 4 1.201622573223904 4.0641812246004205 2.1703516836049874 3.3431499541843746 0 0 0
10 4 1.137234846580941 4.012135374182878 4.769560028538792 1.3888461330261659 0 0 0
856 4 1.184079020288672 0.49396309223083545 2.151310042862705 7.383428066409479 1 0 0
12 4 1.180012971277639 2.7118491851505855 5.849114988660388 7.569787410190043 0 0 0
864 3 -0.8748228689841065 0.23518653704886935 5.035252708699148 4.452300066612773 1 0 0
25 3 -0.713894946654004 4.30579668654206 2.6828657492530663 1.8288092368093827 0 0 0
1246 3 -0.9146190247162992 6.564188223109589 5.539801614776891 8.950937074613943 0 0 0
27 3 -0.7936608201830411 3.6384566511859093 0.6410832165829442 3.2386433746797723 0 0 0
28 3 -0.7722236247550074 6.435542019516159 0.6126193918950766 8.071669835917785 0 0 0
29 3 -0.8661767392063403 2.8464595707101816 2.9885928013445913 4.06599931783923 0 0 0
30 3 -0.8693509163235951 5.381093450907769 1.9967250766355167 4.294471545262301 0 0 0
31 3 -0.8888733562671185 1.7993072470859188 1.792467588123493 6.536467124265784 0 0 0
1377 2 0.3275395330239864 11.170053931131504 4.718409693070113 2.931664118187126 0 0 1
33 3 -0.7690626340088238 2.4404810867824733 4.653769009525872 1.8683311650548067 0 0 0
34 3 -0.7138468795558169 1.8812221874088773 5.490326742565436 8.908480890496865 0 0 0
35 3 -0.8605061974476013 3.4449638414782853 4.530933148841533 6.8415956856203515 0 0 0
1376 2 0.3425439326929433 12.57065585096076 3.6584022715138955 3.1074898690257626 0 0 1
1180 3 -0.7834297108052535 1.0097686704220523 4.436302734383336 11.069462335250352 0 0 0
40 1 1.343392541219195 7.488705041295951 2.4322683694018328 5.096997379648286 0 0 0
41 1 1.443506417370928 6.028668656163229 5.439375306428055 6.819559008348281 0 0 0
43 1 1.415127114564446 5.194574859983111 3.4246663729233786 9.788484695454263 0 0 0
46 4 1.017328028664614 7.179250745804463 2.0465683718812056 8.005112908060603 0 0 0
47 4 1.103095444148999 5.853695682770892 5.838527678435629 3.8618334280736977 0 0 0
52 3 -0.959440242247438 6.2484656816932755 3.1372055808659343 7.247078038925516 0 0 0
53 3 -0.744019734177894 5.015779477341624 5.361027911634077 2.557023135103989 0 0 0
54 3 -0.8868930591987391 6.924913655997945 4.930799700429923 4.71115911573803 0 0 0
58 1 1.48343929612833 1.213526762330857 6.268626543990741 0.8923422678128466 0 0 0
69 3 -0.7690568882245563 4.047565859818666 6.754157570496389 7.969666457525241 0 0 0
72 3 -0.9203893456609207 1.792675942299043 6.506572933007987 6.4609077550789324 0 0 0
1244 2 0.3992615805074248 5.07740169315533 0.3123108480196716 10.236275915993202 0 0 0
1274 2 0.3177817323737286 2.7369641427313334 2.624590988196207 8.920946325436473 0 0 0
108 3 -0.9648098848704731 4.725727160585528 6.2045809992851515 4.939022422081089 0 0 0
273 1 1.410738780983496 11.071189533386326 2.334969586298717 7.312111500531761 0 0 0
274 1 1.397625540181067 9.443963223616175 5.5264779538463396 4.892877227247826 0 0 0
276 1 1.515681899898026 10.704066063440724 1.0075409777819968 1.665970327863407 0 0 0
281 4 1.042406716689228 10.72342815227679 2.4083441500803926 4.330030494123248 0 0 0
282 4 1.19945236742714 9.571466868299353 5.8987801621728755 8.568486663640764 0 0 0
100 3 -0.7774022188869669 6.647017647795022 7.256793946022424 3.462167727530247 0 0 0
296 3 -0.7746945541587452 11.148228222277918 2.8244285967356753 2.7841970025001728 0 0 0
297 3 -0.8405304624713715 7.521213115029048 2.4669846654281438 9.574779396142514 0 0 0
298 3 -0.8514511607050488 9.723892987341843 1.1482653098464257 4.012838055508023 0 0 0
1273 3 -0.835305722237092 3.6326458370774715 2.1692745447535846 8.751370513712303 0 0 0
300 3 -0.861858833294185 9.811866414469693 3.4183694427765015 5.314230214587068 0 0 0
301 3 -0.9412287033984769 11.984037260534794 1.933326188598561 5.226666253855754 0 0 0
302 3 -0.8608247796939459 8.59773731504661 1.860786273277848 7.151608812093763 0 0 0
1323 2 0.2643390195723389 7.39348103375764 4.543028156421413 11.056190362263944 0 0 0
304 3 -0.8221872539401734 9.036449060574903 5.499926351409436 10.04163875302722 0 0 0
305 3 -0.8086404833459718 10.74661225187147 4.90179016206419 8.143470554542812 0 0 0
339 3 -0.8397373649731851 10.051859301572378 7.465228738395278 8.808591277687379 0 0 0
1591 3 -0.8355002417490726 12.487035677246704 0.16181916032363364 2.4203717120863604 0 0 1
1130 2 0.3339476349591782 11.528255711139058 3.061220532846321 10.559865476524093 0 0 0
311 1 1.475452865142387 12.83008084908605 5.533632598579508 7.925463141574021 0 0 0
1551 2 0.3063953701220842 8.060130944610828 5.907089795906607 2.129187348673155 0 0 1
1530 2 0.3515193334447216 6.410178059285214 2.9502416862657284 1.9964768741860737 0 0 1
317 4 0.9942341429319357 12.893746471761823 5.503416087017486 4.752874291632043 0 0 0
80 1 1.419403255600441 5.781265847289003 6.686167737599473 10.890863673922409 0 0 0
1387 3 -0.9285691341206053 11.67118464603839 6.800057752791 0.01498989286838276 0 0 1
850 1 1.443450708666268 0.6577166772183687 2.426588221954598 4.347151455066904 1 0 0
26 3 -0.7603739630207147 0.834726985426974 3.0007993934581134 8.713154945985547 0 0 0
1362 2 0.335512871272382 12.16711327633884 4.101681875925864 0.05639162947845937 0 0 1
342 3 -0.8898753126110643 8.653845603870803 6.1642525304763875 7.247636159961646 0 0 0
573 3 -0.774512922426783 12.97806060505348 4.732814979396488 10.591576254203533 0 0 0
1243 3 -0.8457117315381458 5.186807643822038 0.9879007959894718 10.917215983728129 0 0 0
378 3 -0.8106371418735894 11.56470959248903 5.906308835097904 5.553775132931767 0 0 0
1129 3 -0.7426031801850587 10.703828665519715 2.794642298484313 10.115146961480056 0 0 0
36 3 -0.8871779287465537 1.1597553220871168 0.23509213873389775 3.9202593813592395 0 0 0
1091 2 0.3009397416785441 1.9323124460104 2.492419651089503 10.73084341274224 0 0 0
1388 2 0.3857158965996557 9.452394911838844 4.7196356277964115 0.4227791200940684 0 0 1
1522 3 -0.8025906081205347 3.4785474364759903 6.502622284150218 0.576038480992609 0 0 1
1375 3 -0.8611384538631893 11.484284860735187 5.63592335460556 3.1060170547840142 0 0 1
322 3 -0.8293946476220441 13.220235025196468 2.9122832580973226 7.914475125377306 0 0 0
1529 2 0.3402036740530197 7.3630512946019 1.699859215951029 1.9831895785035802 0 0 1
11 4 1.202302269209555 0.7146194475519799 4.455165017358956 9.454384484527484 0 0 0
1248 2 0.3179053668680197 8.242803979890114 3.153722710023158 9.572383907262093 0 0 0
1112 2 0.3084062319256071 13.433497770324587 3.950452568187659 10.292938227508444 0 0 0
1528 3 -0.7506535992550062 7.313555875831448 2.6347741321894644 2.281176078748955 0 0 1
1247 2 0.3328777503850391 7.408355563066334 5.376853381794493 9.408327333989357 0 0 0
1131 2 0.3267101334382683 10.456264837144804 3.6974042531865563 9.76878831881151 0 0 0
1090 3 -0.9534569291837721 3.968743421859871 5.153008702157168 10.614693932492834 0 0 0
1549 3 -0.8190843373226587 8.607918802628667 5.155749236615658 2.19911248761986 0 0 1
1366 3 -0.844818675641543 8.371507516756285 7.184706380776092 0.2529787172524434 0 0 1
909 3 -0.8941999580300199 0.5747315136532273 7.117696731477417 2.8864154939442326 1 0 0
1550 2 0.3661289456555401 7.982750948639413 4.420038372858013 2.433258627959873 0 0 1
328 1 1.382957030174691 10.17467473238323 7.417926176496892 1.649156903460521 0 0 0
1622 2 0.3901654421336788 4.9738440461862305 7.257348369397125 1.2199554086094613 0 0 1
1165 3 -0.8375276632473196 2.0293685162836126 1.5040430592683776 10.900922346829654 0 0 0
1429 3 -0.736840162529709 5.580793836399096 0.18309773345274516 0.4379653789004952 0 1 1
1361 2 0.2704993875878479 13.147413120111404 3.6881643416657774 1.0274116682062369 0 0 1
1167 2 0.3726332966964016 2.796541430927337 1.2786186988388129 10.356114661359795 0 0 0
1360 3 -0.817219847702127 13.08827661825698 4.191356603266884 0.19220233694851455 0 0 1
1 1 1.428110552060127 2.688206096691097 2.788621325275689 16.353648771524192 0 0 0
2 1 1.424929879387429 1.2681881690067573 5.821006502175776 18.180354937682452 0 0 0
1439 2 0.3051776900325251 2.437122706981689 6.013673495778924 20.677483170452533 0 0 0
7 4 1.206970986203623 2.605949399299593 2.565693370928839 19.534453707961013 0 0 0
8 4 1.102750146813185 1.3940439560156854 6.065037468111426 15.089014317866082 0 0 0
565 3 -0.936489754380414 12.894460204808661 0.5923723194510849 17.443056139124415 0 0 0
14 3 -0.7781887124977026 3.030248273144184 3.009083958553115 20.983367305869557 0 0 0
15 3 -0.7549244743222088 4.79471148884848 1.094657748505677 14.933324420210493 0 0 0
16 3 -0.816387756355047 1.9435721832837556 1.140565560827522 19.774214008683245 0 0 0
17 3 -0.890639110479916 1.5970065165635876 3.4637978142772137 18.674644224001234 0 0 0
597 1 1.494826030856856 13.241504977805546 6.433069505128073 21.201629624405122 0 0 0
19 3 -0.8990338449664693 3.862294296830844 2.1957871951338226 18.604617719937906 0 0 0
21 3 -0.719611945711113 0.9213623784488628 5.511502110901448 13.688216915095202 0 0 0
22 3 -0.9160668200266293 2.2371631401835215 4.963610553101228 15.86806887660969 0 0 0
23 3 -0.9639852316019903 2.644508065323454 0.5901097867212907 16.598733134832855 0 0 0
1113 2 0.3529567264969304 13.14117400062328 1.4694189528139299 12.391972670437017 0 0 0
38 1 1.480760898180622 6.046735983522764 2.770973083265199 18.131622364087725 0 0 0
39 1 1.349248270310446 4.545449433763067 5.864723417290308 15.997832555996057 0 0 0
42 1 1.471526024423262 7.072323877098403 1.359560467281373 11.824702183635933 0 0 0
44 4 1.108556451424005 5.794230940808231 2.3751594103631235 15.199703648236405 0 0 0
45 4 1.136285934158737 4.859794373075343 6.0774548389796275 19.055384584813318 0 0 0
48 3 -0.9117255301799793 4.965230281434256 3.4298771143437023 16.119814829582438 0 0 0
49 3 -0.8766733672968251 4.959764004939705 5.4312878799509905 13.249642046113962 0 0 0
50 3 -0.791421455269144 4.845147364099281 5.869644912286626 20.626879090471924 0 0 0
51 3 -0.8862905249690477 5.750739194728575 5.1159648842548595 18.189367055594296 0 0 0
89 3 -0.8387734762854642 5.674667851024498 7.477292774193003 18.89613965065154 0 0 0
63 3 -0.8057454345714417 2.533269898973476 7.196396268185572 14.691085608872465 0 0 0
852 1 1.308591279749451 0.5474372030608589 0.828531630027315 13.197000600379136 1 0 0
79 1 1.472767557844602 2.9347589714825095 5.321034555859435 12.66240979966173 0 0 0
1187 2 0.3280859980279917 9.427294806641816 2.8615556055564637 11.850108400779867 0 1 0
98 3 -0.8936741905229478 3.3745795470848905 6.25524518325658 18.36374775087952 0 0 0
271 1 1.444491406791649 9.332982998446912 2.6881253356436496 15.715499658866566 0 0 0
272 1 1.348103607934478 7.974639984263366 5.892895904452787 17.89378452841364 0 0 0
295 3 -0.8653819195873746 6.112943820032467 0.47623375105557525 17.93081319653558 0 0 0
277 4 1.100238857865797 9.213242257611553 2.5410512056999797 18.811859314390354 0 0 0
278 4 1.13123201250939 6.221066432271757 4.485683843938501 12.893361023078961 0 0 0
279 4 1.164420520736339 9.6816554086952 4.746737644973781 20.914413253090572 0 0 0
280 4 1.028857378651068 8.16320909384792 6.095851930347598 14.75910621239371 0 0 0
283 3 -0.7538349725979382 6.019567159125872 3.0821608504483415 13.694997419641366 0 0 0
284 3 -0.7306564709361908 9.601115201242704 3.2225360110673975 20.262494310789073 0 0 0
285 3 -0.7880549896490756 11.366119627979185 1.4227210485662924 14.215859815248566 0 0 0
286 3 -0.8367565981859697 8.494191298367378 1.105822370130312 19.196877616965857 0 0 0
287 3 -0.8862486071198353 8.16782780363676 3.3969154514878364 17.903396738342906 0 0 0
288 3 -0.8944414270289283 7.233476752428807 1.9614178860853024 15.705679125758019 0 0 0
289 3 -0.9044784499855226 10.59370488692374 2.3100284612999675 17.901978018538294 0 0 0
291 3 -0.801993374519786 8.275585509990421 5.534121530734329 20.556466851643137 0 0 0
292 3 -0.7880509012574813 7.5670331189825815 5.423353686652337 13.362130341152229 0 0 0
293 3 -0.8479648079456131 8.998415122704598 4.927386269052351 15.538715342865897 0 0 0
6 1 1.439798190934962 4.439459294515582 1.9002946273617831 22.258831232890138 0 0 -1
1157 2 0.3310655546938479 11.9978417793916 7.567303341575154 12.343298360655346 0 0 0
308 1 1.541094932004039 12.748796624524728 2.6833354247473737 17.532605022738593 0 0 0
309 1 1.451683618343016 11.308430833173686 5.836774872709042 15.4391762027445 0 0 0
237 4 0.9638357384449615 0.6520240761510588 0.1613166469644466 19.66780700973309 0 1 0
314 4 1.086329941842293 12.391840443559438 2.7018770617216035 14.465234203450093 0 0 0
315 4 1.109178606868203 11.555347258695043 6.073553763699236 18.652628093777885 0 0 0
318 3 -0.908042746064184 11.51978359597227 3.635546978735411 15.429092554814511 0 0 0
319 3 -0.7576622845583646 11.451873481464611 5.667515625284308 12.677253578303851 0 0 0
320 3 -0.758107655744899 10.910808926008338 5.677710208490673 20.132120045796547 0 0 0
321 3 -0.8319660724825214 12.291222740420581 4.861071403980252 17.916079435969472 0 0 0
327 1 1.483894749413749 6.715932872451355 6.82258203085711 21.4053153895618 0 0 0
333 3 -0.8691289263257753 9.282937035018472 7.233823015233933 14.262107017024245 0 0 0
337 3 -0.8774077682642957 6.9724280986151435 6.7223378811887615 15.728349425576813 0 0 0
349 1 1.390960527426637 9.382918184676868 6.470391981550459 11.976185234389813 0 0 0
359 3 -0.861501964568209 12.68402631309081 7.178132384776063 19.066450789279074 0 0 0
367 3 -0.8841946597705956 10.371651171329773 6.763156923635206 17.75732923764631 0 0 0
1502 2 0.324746650967379 7.163535942454624 1.8721929842774965 20.74936673873846 0 1 0
548 4 1.264052657802348 12.82332131099323 4.844391331522233 12.271463362294925 0 0 0
1188 2 0.3613699585864388 10.021270619448112 1.9107498591326477 12.877855940059028 0 1 0
1225 3 -0.8791702232964684 2.7287706866442663 2.8061208229428543 13.507459197363312 0 0 0
1226 2 0.295577733910566 3.7195319877637636 2.6085941656851612 13.593812486493743 0 0 0
1227 2 0.2683038039628946 2.5496014548064556 2.1648918315176315 12.812105724647319 0 0 0
1523 2 0.3566694021527267 3.798819183516539 6.373844581150005 22.40362056478706 0 0 0
18 3 -0.8989318416002812 0.36709619374820684 2.1693683859610555 16.082148527586483 0 0 0
553 3 -0.7415031364863273 12.721557218481573 3.374560365285636 12.931986952531258 0 0 0
1524 2 0.3755303424156602 4.501133053876661 4.6604007277164925 21.655535024390737 0 0 0
1440 2 0.3260980715622598 1.8614427714852462 4.736691329702481 21.02455754616244 0 0 0
1389 2 0.3000964485577547 11.174590434497661 6.020337068778256 22.528801347630427 0 0 0
290 3 -0.7621510635459267 10.058157344781177 4.3988164020929545 22.47374788459765 0 0 -1
1181 2 0.3110239650839826 0.3713173827135203 3.7721991303249163 11.524839696926275 0 0 0
303 3 -0.9708896907098367 6.4794896987950805 4.1637689516652605 11.35457101229412 0 0 0
1465 3 -0.7510803820900988 12.574181385730737 2.6758919589497783 20.20321130886994 0 1 0
1438 3 -0.8044391824277147 1.6027260216727972 5.672890828046024 21.04601516453711 0 0 0
1186 3 -0.8412543483494094 9.188334346965126 2.371089197816492 12.65792033141733 0 1 0
294 3 -0.9263349812376499 9.617456026407975 0.05896122540551428 15.765673620794962 0 0 0
1467 2 0.3557483660965545 11.615849978487928 2.671011623573258 20.149571686996993 0 1 0
1501 3 -0.8353053490856081 6.608828684704648 2.6901920544066034 20.765949350296054 0 1 0
1503 2 0.3464443181970855 7.333465465250751 3.2859463164210503 20.765565477446437 0 1 0
1466 2 0.3001970106183169 12.799907938101132 1.7035778398672805 20.2412511721816 0 1 0
1553 2 0.3976727743801085 9.422811492147355 2.2292295147611263 21.973215359966574 0 1 0
67 3 -0.9101262828183966 0.26905767210349735 6.670437274405224 15.981699574435515 0 0 0
1552 3 -0.8303821723473923 9.251322392480049 1.4669040328440925 22.5307611894236 0 1 0
1092 2 0.3605750035925183 0.6322466677753399 3.768330527976172 13.717537958063323 0 0 0
1206 2 0.3494653217884772 0.3151144744220744 6.516829750863804 11.423092003689764 0 0 0
236 4 1.093266762929697 3.653227355157847 0.03317624549568411 15.51119843903699 0 1 0
20 3 -0.7397499270464916 4.788481094755331 4.36726699350559 22.667560309210778 0 0 -1
56 1 1.455332661551172 1.4933869895744776 8.76601427325388 6.446492514172032 0 0 0
61 4 1.09553963305766 1.3089700166333424 8.533407106002597 3.217177570543416 0 0 0
1146 2 0.3665708505269463 4.044973657699121 14.266141060024426 10.608467848015113 0 0 0
68 3 -0.7358201314528013 1.6911954789798604 9.05971346257699 1.6540909622462374 0 0 0
70 3 -0.8792487066287947 2.6666852205102978 8.31462630334912 4.145762631870276 0 0 0
71 3 -0.9196703374194205 1.0335077367334908 10.832477495492814 6.851237656211184 0 0 0
76 1 1.367801236948045 4.7916497331440615 8.589372085017638 4.89124841667644 0 0 0
77 1 1.276022815677972 3.2643229803608764 11.82546959607777 6.924977916428383 0 0 0
78 1 1.469387248515158 6.648952883657206 11.688959443955248 5.273827622799121 0 0 0
85 4 1.165079718756415 4.700017823484742 8.244837648631478 7.984072673554606 0 0 0
86 4 1.093939893440585 3.598763982498459 11.791645980467562 3.9099760298656014 0 0 0
87 4 1.095021303382975 6.9482603559446074 11.564641492536062 8.341611953343204 0 0 0
99 3 -0.7969466879832243 5.321565911500659 8.665691690884623 9.478439318378452 0 0 0
101 3 -0.8744085695765674 7.202814771018801 9.375539941367345 4.907710383467287 0 0 0
102 3 -0.8599574163551031 3.575950223998873 9.151615094529072 7.263818885789623 0 0 0
1196 2 0.3446361403591189 13.282413226349762 15.238263248155734 9.74169476903655 0 0 0
1285 3 -0.8280458165086469 1.0925445452724996 13.104072293433642 10.938705277103141 0 0 0
105 3 -0.7209921790874779 3.5879579161248825 11.22471165577668 2.3960898959507007 0 0 0
106 3 -0.7578314672497227 6.6500257494419 10.993695422458591 9.858047171509217 0 0 0
107 3 -0.9391907246491599 4.6804191952858 11.03786387429504 4.811135729745991 0 0 0
1471 3 -0.8349030336646011 2.5561213596492793 13.103556035075504 0.08644600716022124 0 0 1
114 1 1.342134378629477 2.063060052531329 14.752484718812813 4.625658686761106 0 0 0
115 1 1.467113927060579 5.311962362853808 14.72611125730652 6.715221317410007 0 0 0
119 1 1.385503924403018 4.742391546855702 12.789262113967842 1.3421656712501389 0 0 0
1425 2 0.382083966599927 7.371491939722092 14.66593881761053 2.117165850414344 0 0 1
126 4 1.000265384512059 5.221604106941297 14.566389928214415 3.855971162014672 0 0 0
127 4 1.141969420950759 1.706416633929817 14.599282040202915 7.642881205459361 0 0 0
1368 2 0.3013721018605048 7.992770830791576 7.8345980991780815 0.7170076260914618 0 0 1
1621 3 -0.7980534109032693 5.626610887973484 7.93180370219631 0.946423764968093 0 0 1
147 3 -0.8267133222657733 4.125380066374179 13.329767649971703 3.886015668629716 0 0 0
150 3 -0.9253854842443552 6.310906772491148 14.02112039855992 4.915689707907075 0 0 0
151 3 -0.921915494223478 3.1429477499824126 14.28707624267642 6.904253686930941 0 0 0
157 3 -0.848830194254456 2.1198095650716593 12.083239513770357 4.544719114214744 0 0 0
158 3 -0.8519505201726443 5.648810158060129 12.09522689162734 7.406943368382865 0 0 0
326 1 1.412896192848393 8.257652837640864 8.37189093520693 6.845423637025161 0 0 0
331 4 1.024756698177255 7.877527205462486 8.38759628188322 3.8432558563496344 0 0 0
1147 3 -0.8065554497345341 10.932551572485252 13.463502090928776 10.542705396588875 0 0 0
338 3 -0.7796445363641672 8.304496125553461 9.089128270441838 2.4561878654888756 0 0 0
110 3 -0.8038528994108518 1.165334044993411 13.109216388404784 8.00975450968687 0 0 0
341 3 -0.8955495940923095 7.782364234256957 10.420174509970426 7.570044716858755 0 0 0
346 1 1.459710125074642 11.689313823261076 8.486252442028844 5.056698783328611 0 0 0
347 1 1.361683380266131 10.13023207851171 11.649837162487241 7.168551549405716 0 0 0
1533 2 0.3747437973647483 2.1691131913917787 9.867950195611543 1.7536181866057292 1 0 1
355 4 1.070348588605634 11.001475397833152 8.60143196642938 8.089975094108295 0 0 0
356 4 1.119016448891347 10.097996267673064 12.033557237143043 4.098781622842742 0 0 0
1348 3 -0.7668465796133191 1.406824410489945 8.768372486243168 9.333258041139846 0 0 0
368 3 -0.7773146617811124 10.65147206350101 9.924151729989918 8.93661416155551 0 0 0
372 3 -0.8480203766943184 12.51408018645812 8.024123608062215 7.726797759944017 0 0 0
371 3 -0.9629460332571079 10.359037381403834 9.027442727273746 6.672549585336105 0 0 0
348 1 1.444193722865917 13.281453976662016 11.689647510275543 5.250432836888739 0 0 0
1356 2 0.3778938657595986 5.633078788849763 9.610183048707201 9.655696097517952 0 0 0
1148 2 0.389493270680086 10.229508171633311 13.699516295099809 10.00757092312621 0 0 0
375 3 -0.8049985548487372 9.77633920742598 11.327216629318785 2.7184473146118697 0 0 0
1349 2 0.3430153166361036 0.8850069861426063 9.544919649179782 9.179906856251051 0 0 0
377 3 -0.9367203805141404 11.281073168612112 11.112534604672808 4.728557613488402 0 0 0
380 3 -0.7515233899192377 8.094824561968023 12.810703264802331 8.34611819144109 0 0 0
384 1 1.416978630672719 8.780279562684747 14.798145596143476 4.9732458956007495 0 0 0
385 1 1.418528811300331 12.14894119254776 14.830030800434583 6.8146484469932265 0 0 0
389 1 1.46178356678507 11.698659074129797 10.64462067214195 1.9372626419287828 0 0 0
1205 2 0.3472736512171445 0.447896356772401 7.900144587935465 10.754674470198081 0 0 0
397 4 1.202443339659945 11.906219780084594 14.50988629783854 3.812931326552714 0 0 0
398 4 1.091583914620333 8.562035071057513 14.34064212782091 7.996083218797677 0 0 0
1354 3 -0.8287192056103918 4.932673564936382 14.686174637153021 9.1534078666754 0 0 0
1623 2 0.3576260394652688 6.2990013319696 7.875543122419489 1.7197281858059559 0 0 1
418 3 -0.7861545047178085 10.727288365935307 13.453314636879275 3.654476550913312 0 0 0
421 3 -0.9787356552717048 12.973064649751489 14.01557340687687 4.860735526086332 0 0 0
422 3 -0.8834871215527081 9.923748082650683 14.24506099577566 7.146962674724499 0 0 0
427 3 -0.9203362560825019 8.918448642419781 12.381513968630008 5.1575938103140695 0 0 0
428 3 -0.8808485660073151 12.252535655706684 12.330667521488998 7.62068643068492 0 0 0
1587 2 0.3111636057413788 10.783811716212869 13.22003731748669 1.4199517940102506 0 0 1
1507 3 -1.020502081944267 11.827625057464605 8.54364083323319 2.6184836628485555 0 0 1
417 3 -0.7095227996928536 8.836515392335382 15.104123331551065 9.439112172434992 0 0 0
103 3 -0.8815546862052867 5.948280667628124 7.9109016077496115 7.029451847842689 0 0 0
1611 2 0.3576498811404006 7.81615166147137 12.452667189059056 2.501256889030157 0 0 1
1418 2 0.3807327670712749 8.57242465546505 14.348844984434027 1.1645635343665808 0 0 1
1586 2 0.3585179713323249 11.629883470098681 14.000647275818768 0.48218555606471264 0 0 1
350 1 1.261176458558509 8.868138189244014 9.320112786577573 10.11453876811254 0 0 0
145 3 -0.7752209033432637 5.628146061138676 14.766679071019688 2.2502889155381984 0 0 0
897 4 1.076712549782902 0.17955479809397357 11.82888194556277 7.764373016076259 1 0 0
1197 2 0.3932413563877531 11.913851140558439 15.022663046443375 10.069115506928249 0 0 0
1585 3 -0.9000229422448539 11.383762366015121 13.074344996295753 0.6147485149366082 0 0 1
1509 2 0.2706468458204881 12.722323968639632 8.307999971804652 2.50841078936989 0 0 1
1511 2 0.3429592650377521 7.079869783910673 11.343478780819384 0.7698921908182497 0 0 1
1417 3 -0.7810391999426983 8.357494613600194 14.556085819878684 2.189602650817677 0 0 1
1286 2 0.3762551332680342 0.9045191557956807 12.658853984787662 10.118290655060504 0 0 0
1610 2 0.3355243648558298 7.170849269877088 11.11908374212982 2.509176980341261 0 0 1
1609 3 -0.8658764743035685 6.936813179378333 11.986364146857095 2.6304382463895513 0 0 1
335 3 -0.7547832376751281 7.702418200267044 11.314082259285529 0.007701987054693334 0 0 0
1218 2 0.3724462854107329 10.202039482795158 11.755258643493573 10.815564552351024 0 0 0
1350 2 0.3256457454380862 2.1602231513709915 9.185748909973722 9.698786776745147 0 0 0
1355 2 0.3132582627152252 3.589333560608362 11.377101062319229 10.76399995628706 0 0 0
1508 2 0.3331433309470545 8.922281856265865 9.977232920756824 2.5922781158387846 0 0 1
1618 3 -0.8882831261744484 2.1588934557613175 15.03740065054173 2.038120659844 0 0 1
1473 2 0.3888643066503838 0.36536317693777426 9.997350987034604 0.5526901414105757 0 0 1
416 3 -0.7816040627167705 12.694639694938623 14.706314189119231 2.3968673722111475 0 0 0
1634 2 0.2871749088173041 9.280556167569205 10.021892932082338 0.31947532029981696 0 0 1
910 3 -0.8902548237205131 0.3050205939122104 9.565289534529196 4.026134754016556 1 0 0
420 3 -0.8932987959633282 7.391330024630776 15.187211313851373 7.221808779145311 0 0 0
1619 2 0.3507940112934296 2.1700033573851703 13.743503334365297 0.7809273325272473 0 0 1
1145 2 0.3935267724667617 2.7055899585424896 13.700099282051413 11.28285270074821 0 0 0
1512 2 0.4013466960858121 5.404872454289529 9.610849509955703 0.2463910870917292 0 0 1
1598 2 0.3634862477188515 12.738938814302623 13.87315504814732 1.9486625435487357 0 0 1
373 3 -0.8519320019521337 9.453216293400589 11.428349806748919 11.278948180827927 0 0 0
1256 2 0.3414417939971789 2.2845874938505677 8.012876261950671 11.143631731870387 0 0 0
340 3 -0.8999546811696002 9.3367627582339 7.757818968756407 4.329349533948628 0 0 0
1287 2 0.3312098869029718 4.145865486351948 15.205006961374849 9.025648032352917 0 0 0
1321 3 -1.007305410113744 7.539026238463044 7.866893184119069 11.294285697866462 0 0 0
657 1 1.484699858216989 13.32864285132817 12.505572133868643 11.894376769226827 0 0 0
1158 2 0.3074137426196163 11.050934116060967 8.8767107465264 12.366597652153134 0 0 0
1485 2 0.3801790284016364 12.824477374921418 14.391172976703752 20.62157221253198 0 0 0
1462 3 -0.7782084574833836 5.476019660454862 14.062671642414196 22.05411959981579 0 0 0
64 3 -0.8603981368255598 1.2329981575017677 8.543126134920518 18.506783856514375 0 0 0
381 1 1.485269749443253 10.57793137674798 15.169425370068351 16.182015872468355 0 0 0
73 1 1.403413961808451 3.371328937046037 9.027451573494925 18.15964310435144 0 0 0
74 1 1.388642953647301 5.1144477029310815 12.316430158073782 18.24660740030278 0 0 0
75 1 1.381692895623778 1.7950837874738381 12.164431525471036 16.14026686310889 0 0 0
81 4 1.105964812019975 3.1193665634772194 8.734922329826485 15.056272909941258 0 0 0
82 4 1.177139046868334 3.4673374440455627 11.105929348642691 13.044028545585183 0 0 0
83 4 1.156487832586819 5.160635560385127 12.523217346825614 15.176666405674277 0 0 0
84 4 0.9243226327987942 1.93182470419607 12.349369223938872 19.250038448378042 0 0 0
88 3 -0.7395967236661902 3.4485461899523377 9.586136459161366 13.663890742601986 0 0 0
90 3 -0.9240988386150851 2.1199232489006943 9.630306725351335 15.976104209669913 0 0 0
91 3 -0.8565950998269491 5.525008679006972 9.775456166148738 18.301288628179215 0 0 0
1179 2 0.3431092388076041 3.58908345072611 15.409437405096055 13.114877471103872 0 0 0
93 3 -0.786177564902897 1.954205366059077 11.765039599890788 13.406374336003756 0 0 0
94 3 -0.8615348256343942 5.781942815022679 11.89257689833569 20.59713872968284 0 0 0
95 3 -0.7874957389926217 4.664960228952011 11.9733271298889 13.714639267721347 0 0 0
96 3 -0.776079103294858 1.3625705080598687 11.520092799250682 20.837704328958054 0 0 0
97 3 -0.9216197517721381 2.9595931607234855 11.2689365868121 18.54039017858711 0 0 0
118 1 1.328849465220429 3.759813987209117 11.184028131923094 21.14144008286445 0 0 0
1510 3 -0.8354535931733553 5.277779918414995 10.508944071679476 22.55482495337189 0 0 0
595 1 1.48081829811545 13.316454283525289 8.99406130171312 15.577912906188509 0 0 0
1517 2 0.3419768988355351 12.665693862744373 10.467771337450861 20.591281829255728 0 0 0
104 3 -0.7222001268089514 4.076844874445618 10.884762009303856 11.484932629091169 0 0 0
121 4 1.153282822641778 0.27757691773788856 15.040703523598516 15.147079465804525 0 0 0
1626 2 0.3395662623171813 10.651564652467147 7.783152722833519 20.6757728227295 0 0 0
1484 2 0.3121419227437892 12.763116235087118 12.004446321780481 20.527274500120434 0 0 0
1526 2 0.326513203427065 3.185450151213188 8.400517263827814 21.933537382431084 0 0 0
133 3 -0.7839409244804999 3.032335532299204 13.511542196162274 19.69389617598604 0 0 0
136 3 -0.8420027277304776 1.5760207940285507 14.552593423326115 15.933813879285859 0 0 0
137 3 -0.9100955964934543 4.983828617304462 14.563590504976865 18.39970700700043 0 0 0
143 3 -0.9433147287280061 4.036406817921781 12.9039250924735 16.177887299904825 0 0 0
144 3 -0.8880768982190616 0.7895778816176114 13.047286818842377 18.32741824564424 0 0 0
325 1 1.377542815039112 6.5845817863127465 8.989246383487096 15.85889257173479 0 0 0
329 4 1.146815635751721 6.596548591853555 8.77522477159763 18.974599353116346 0 0 0
330 4 1.106496039221939 6.937763603515924 10.909054774180865 21.259947982765205 0 0 0
332 3 -0.7736810642374786 6.800864877774177 9.025640526869001 20.5828651893027 0 0 0
649 3 -0.7996344365377299 13.16947982798058 13.478015639104996 14.280219990700958 0 0 0
336 3 -0.8584327232265666 6.07930904464701 11.377553630653367 15.916626717896955 0 0 0
343 1 1.484236182191395 9.996588605635191 9.020932225035766 17.740929757962334 0 0 0
344 1 1.433787475662388 11.850253726183764 11.945762101965315 18.01322713963745 0 0 0
345 1 1.397306840183696 8.35502635623557 12.131494436878214 15.818925811992237 0 0 0
351 4 1.122142183328988 9.83411545477571 8.736614796075969 14.704987398415875 0 0 0
352 4 1.146091560406183 9.791324951932475 11.296992986522408 12.886947659469465 0 0 0
353 4 1.075467671022489 11.931054451143398 12.449066805107412 14.79900941446479 0 0 0
354 4 1.120742156261647 8.760405657957845 12.22070270646763 18.868083409303843 0 0 0
358 3 -0.7622874542437829 9.9159950998869 9.714118854111911 13.304191895132004 0 0 0
360 3 -0.8962597372056864 8.97284899685128 9.647747633182329 15.703548241850552 0 0 0
361 3 -0.8872092195958605 12.27782851502499 9.600751431917258 18.0040453900508 0 0 0
362 3 -0.9064245832278289 11.254874431956177 8.31114119593839 15.333497782754426 0 0 0
363 3 -0.8536662036089967 8.459952421467483 11.889304001941264 13.60602681210216 0 0 0
364 3 -0.7774422600850646 11.212382535928999 11.998183461009965 13.291837081131044 0 0 0
365 3 -0.7560123708042813 8.232870403489331 11.497051335937037 20.2364681906514 0 0 0
366 3 -0.9320366395777162 9.790540792288482 11.403350888847925 17.918441092679082 0 0 0
379 3 -0.8080817399682202 6.175959916243917 13.81544087607958 14.860472105419007 0 0 0
1535 2 0.3784603089265961 7.703381521361123 14.997547287126874 21.38269596519431 0 0 0
402 3 -0.7776228859553878 11.096645512313506 15.33034844480411 20.831305992051547 0 0 0
387 1 1.450053924561003 6.661573776643183 11.29264092478592 12.217305782551016 0 0 0
388 1 1.502313283408086 9.925129845306056 12.351968284023874 21.72455608690145 0 0 0
391 4 1.195037172548486 7.058520172654692 15.138975871589183 15.160837866754743 0 0 0
392 4 1.17195694805564 10.508040034461668 14.795434062167365 19.34313157178255 0 0 0
1298 2 0.3364513441035884 10.043987528952957 13.766166148586821 13.550651580361047 0 0 0
1463 2 0.3238013721400941 5.6115128159827545 13.227936484643902 21.25074782341035 0 0 0
403 3 -0.8474556846398649 9.746844842698806 13.369022919947387 19.480044630648038 0 0 0
406 3 -0.8902195490687472 8.336151409473176 14.823095596742261 16.011441132876506 0 0 0
407 3 -0.889839436902061 11.745987577860092 14.413338703061008 18.435662355735055 0 0 0
414 3 -0.9107777956613542 10.837073495228896 13.042724707683101 15.804055874615893 0 0 0
415 3 -0.8746911260841788 7.567759893045746 12.870795013804003 17.98675192587563 0 0 0
1316 2 0.3568763571252883 6.719877928654454 14.127843769316327 12.764294658491606 0 0 0
1367 2 0.3192957626891675 11.51711832709708 8.98607327702163 20.30022533396034 0 0 0
1635 2 0.385307327880545 9.833297411581071 9.076086311911657 21.988830337657248 0 0 0
606 3 -0.8208010389147679 12.750213461213379 11.19766277125386 15.463511712635404 0 0 0
112 1 1.49292159776454 0.545815636554514 15.265870020954809 18.384191845212747 0 0 0
1192 3 -0.7823462630799697 13.376692748228201 10.230926752973824 12.355503263354636 0 0 0
1322 2 0.3260777164210208 7.183881801287852 8.366484027965386 12.156556841630543 0 0 0
1194 2 0.3670926041774453 12.622466369353559 9.68528896000639 12.05656534827887 0 0 0
1525 3 -0.840003104925839 2.866821240675541 8.575357133315409 21.071510868823417 0 0 0
122 4 1.08643992443008 3.6445407062148556 14.974095974075286 19.228136656429434 0 0 0
92 3 -0.9065885449466644 4.4046029430424145 8.308141362221525 15.874673567278087 0 0 0
1297 3 -0.7764642406076481 9.964618460509145 14.689116159925584 13.607168345441664 0 0 0
1464 2 0.3284600512811723 4.704955598848199 14.634726846356134 21.65561979806673 0 0 0
1257 2 0.3848093776571312 3.2047035118482694 8.419865541102693 12.304891853527156 0 0 0
1317 2 0.3388220499296167 5.3701617595518885 14.105826339194815 11.962652385148658 0 0 0
1216 3 -0.8581524613704572 6.43538838519919 9.321930227525757 13.22488453503834 0 0 0
1217 2 0.31003207703459 5.519773228873282 9.368264710503984 13.438826787026333 0 0 0
1315 3 -0.8227607731475649 6.374328471390464 13.852303083226527 11.898834484011065 0 0 0
1472 2 0.363876019297116 1.8114862336267907 13.1265567051693 22.125068824253532 0 0 0
1527 2 0.3583627852632021 1.9387771215320602 8.531094283661695 21.16869641638852 0 0 0
1516 3 -0.8504296681667884 12.115555747131753 11.301069215623798 20.626539423844065 0 0 0
1624 3 -0.7703585571543353 10.580980903056101 8.696652695588632 20.449757160952814 0 0 0
1156 3 -0.7724109873700642 11.577937991956235 8.238511301280463 11.759137615539483 0 0 0
334 3 -0.9012215181073805 7.946185950986213 8.479751213905693 18.20641189305148 0 0 0
1299 2 0.3268491052552993 8.942769114144554 14.781985357704587 13.39593245669871 0 0 0
55 1 1.43613325356772 0.06529451156427682 8.901284568428766 16.086459005108487 0 0 0
382 1 1.369135123898644 7.422044759296616 15.354770606979361 18.239644126109674 0 0 0
111 1 1.404840980422399 3.874109942511416 15.369008057387271 16.273232873056507 0 0 0
1149 2 0.3316327752747641 10.634963408726488 13.586166215080535 11.439138784795679 0 0 0
599 4 1.125537451476633 13.36031797664355 8.62535392806903 18.69059670889706 0 0 0
1424 2 0.385861515222191 9.610234619194859 14.987631373921694 21.93812341000124 0 0 0
1423 3 -0.7877225836620422 9.04479893369916 14.272989783237222 22.233587536212724 0 0 0
1416 2 0.3207523528932949 13.180317585474837 10.50375996527812 22.375569600261223 0 0 0
1144 3 -0.7681310037187459 3.5726068062754806 14.160811023499535 11.472051794107475 0 0 0
1536 2 0.3425632808720119 6.1393930012211655 15.325656290253386 20.816825614731066 0 0 0
1255 3 -0.8063196368644889 3.1265910997984085 7.813675568859376 11.562476604117675 0 0 0
1633 3 -0.849258592890572 10.147629800745541 9.768901386030803 22.60751783070957 0 0 0
116 1 1.452903454203508 3.965570551886881 17.981379473038245 4.656363554786067 0 0 0
128 4 1.119708310619677 1.9146762536279032 16.941694162767032 9.756681106109195 0 0 0
1331 2 0.3741901537481714 9.429020422898123 20.045164469531848 10.105105814474298 0 0 0
130 4 1.14817678863579 3.918036658343238 18.242558576906507 7.6627489474077555 0 0 0
1603 3 -0.7393873988316381 5.654693424783581 17.687099167144343 2.4395464346670424 0 0 1
1170 2 0.3334970263678538 4.522128327982085 17.3545575959205 10.197239909265816 0 0 0
1262 2 0.361076326848996 12.423010191518635 21.78968235639577 9.766864170271923 0 0 0
1234 3 -0.830014686497746 9.072937092866537 22.814434987347905 11.171347924886575 0 0 0
153 3 -0.8345201266930674 0.49358318966237225 17.585822126867644 9.47581246781934 0 0 0
154 3 -0.7400792542593276 3.2062460178885566 17.74388000235062 9.01738043899843 0 0 0
155 3 -0.9058151353322716 1.9504130282445309 17.1807408693553 4.180151707270671 0 0 0
156 3 -0.8807222193670107 4.899543139126378 17.037760909098136 7.096196687570331 0 0 0
160 1 1.437947088311236 7.126215427646086 18.014883688865922 6.848742898177568 0 0 0
162 3 -0.7160873025876845 7.964907537152782 17.171598438887614 1.7812150607624064 0 0 0
165 1 1.418204011000017 2.5762002899564727 21.041069637154745 6.220438030661256 0 0 0
168 1 1.352596519346765 3.847166821787635 16.339839753608715 1.7047521436286988 0 0 0
172 4 1.121211765502387 2.5587329222591513 20.584868779851984 3.031595151036022 0 0 0
1559 2 0.3365658829038122 2.591284951960221 21.81815658647855 1.1292078856551337 0 0 1
184 3 -0.7470980602681284 2.8706989743452436 20.902092696980215 1.4807870087092456 0 0 0
185 3 -0.7952841661115865 1.6872212667742001 19.207461410458382 2.677441668324262 0 0 0
186 3 -0.8406378068490674 4.994074139361119 19.40387540400972 7.890857054947223 0 0 0
187 3 -0.903579364295548 1.5403963921027262 21.552559310696648 3.8589301453384617 0 0 0
188 3 -0.9165740532245 3.789151054088633 20.17891009248968 4.017800264113942 0 0 0
191 3 -0.9651579221327635 2.858277568945988 18.646835762892067 6.520504844578173 0 0 0
194 1 1.476427220139097 6.021081388654291 20.927142013189677 4.444941104844782 0 0 0
197 1 1.464490997455443 6.523956041547378 19.264298626290834 10.180495012233617 0 0 0
201 4 1.156908342486942 5.661889139856399 20.860517970009337 7.562894706735907 0 0 0
210 3 -0.7708381740268746 5.92538729053334 21.464133863343534 9.061924872167523 0 0 0
211 3 -0.8938976355653356 4.696108283596598 21.628669048865323 6.558262809570142 0 0 0
212 3 -0.8989128162748042 7.048422341679096 20.572093975421858 6.815928986141795 0 0 0
1452 2 0.379602984322456 6.884339952333696 20.75525824075166 0.4013802378151606 0 0 1
216 3 -0.8999308749297419 6.3191526664971605 18.61097318889045 4.6248617501149205 0 0 0
386 1 1.419592062367804 10.642632312214165 17.98627402275557 4.506930464380285 0 0 0
399 4 1.11098256709363 7.431127390907905 17.891229945603143 3.6129892008122035 0 0 0
400 4 1.037712987422573 10.644800997409442 17.99227088636552 7.574409078215911 0 0 0
1604 2 0.3759852798782928 6.104809885008722 17.897705531786045 1.5616719327204338 0 0 1
1021 3 -0.898709186844399 0.3962671845192363 20.201368339464103 6.529460570588411 1 0 0
1518 2 0.340181092222771 12.753322101593 15.833234654172802 0.9006698997869381 0 0 1
1599 2 0.2956446292859454 12.19153184660761 16.98236260316013 2.263628776009068 0 0 1
424 3 -0.7478503828474061 10.212138107854011 17.3620425583665 9.014378325174848 0 0 0
425 3 -0.8790608294564064 8.19616950079267 16.862035676153702 4.576539751649815 0 0 0
426 3 -0.8749530958583065 11.614300177088184 17.007154810489162 6.739918792401004 0 0 0
1164 2 0.3717191026781009 6.843327144681082 21.90708432171207 9.164742417159143 0 0 0
1330 3 -0.8817805191673392 10.767070232805983 20.115683458505732 11.04549782633416 0 0 0
435 1 1.484250272023155 9.170475717687648 21.00239170498274 6.79537189601703 0 0 0
438 1 1.389034072849599 9.72994182018691 18.682595952529994 1.3342733986261117 0 0 0
441 4 1.032600841984227 9.150317904595974 20.626695442896363 3.706126181889576 0 0 0
390 1 1.438798313648719 6.683429122991249 15.771767517948806 10.047339484857963 0 0 0
215 3 -0.8749581740423041 5.734074549646259 23.08717367506754 4.284507450531383 0 0 0
453 3 -0.742875550795443 9.665162971493077 21.329386809800113 2.2847078133451992 0 0 0
454 3 -0.8570026646614203 8.462984230255033 19.12685313788657 3.3702172771136074 0 0 0
455 3 -0.8361088574997099 11.669536205695296 19.263629729015097 7.973696959835838 0 0 0
456 3 -0.8686337685561977 8.102500378023278 21.56109195120072 4.585743284730372 0 0 0
457 3 -0.8920179325541576 10.444166602438273 20.149997720203828 4.493400573586341 0 0 0
461 3 -0.8898377088386598 9.328854490468037 18.384771932758326 6.75191728618855 0 0 0
464 1 1.463736564243093 12.762902690556531 21.124564190005163 4.927063839555088 0 0 0
467 1 1.441252040682564 12.507831706897788 18.479957154571036 9.976648349062218 0 0 0
471 4 1.040909296063974 12.411351899409803 20.758042817065725 7.773936952759054 0 0 0
486 3 -0.8400430008221211 13.017859031862928 18.820569319860677 4.606132671129071 0 0 0
481 3 -0.8777642201185565 11.325796209573804 21.798629246304472 7.132503174365989 0 0 0
1419 2 0.3644642929277248 8.265654826292312 16.21151954174778 2.008458979197821 0 0 1
1597 3 -0.7665452299729513 12.126333702310085 17.92080865804914 2.5402880314044873 0 0 1
1453 3 -0.8206393395187379 12.844487358929712 21.133021018836207 2.214085439636369 0 0 1
1150 3 -0.8535275788883447 8.698677713224209 20.53132518566525 9.558185866941708 0 0 0
1151 2 0.362754550362496 8.85230467246493 21.44329397978745 9.92487935942592 0 0 0
1568 2 0.3594580327756413 4.95397465638618 22.339871030476374 1.1461465250983913 0 0 1
970 1 1.449950213517758 0.6327634081596856 17.869363459773183 6.4963672180335825 1 0 0
1210 3 -1.036150598157542 7.502589454763129 17.934549149602816 8.935977373692037 0 0 0
1211 2 0.3863460369298813 8.456980466817113 17.946992328714813 9.077078928694942 0 0 0
167 1 1.38552091488678 1.1712444354894807 19.081693760225292 0.181215660314537 0 0 1
449 3 -0.7842784323075204 10.378321922022389 22.696691604790725 0.2895600009593023 0 0 0
972 3 -0.7991135542861932 0.23322347752727765 17.334743194455047 1.888962480286216 1 0 0
442 4 1.273723451193081 9.864006405426728 22.88462782030154 1.7163464436154943 0 0 0
1324 3 -0.7936770760919959 2.524923292200057 21.333840781925225 9.280376560958175 0 0 0
1325 2 0.3595930840474407 1.8445850451444572 21.977630502593698 9.34884725976798 0 0 0
1326 2 0.3408411495021495 3.3201008778854253 21.847857626034916 9.131470340298089 0 0 0
1567 3 -0.7830630728625022 5.7499175572583185 22.256961846629828 0.5052404181974832 0 0 1
149 3 -0.9240038912070166 0.8105569055723577 15.54878593486287 6.74905464093601 0 0 0
1168 3 -0.914600568415892 5.106811303782949 17.203733300159417 10.89492292231493 0 0 0
1450 3 -0.8248433923053109 7.366556224100043 19.899633440610426 0.4012904729965815 0 0 1
1140 2 0.3921283913862234 2.734024921380421 20.667113067627408 10.716923562289008 0 0 0
129 4 1.071563999247178 0.8485057214643426 18.00704536537199 3.305496888037441 0 0 0
1212 2 0.3696135829442263 9.957924117033151 16.345435090813858 8.897242535227395 0 0 0
148 3 -0.9252339513211301 4.2737528509861695 15.819411805700407 4.3306628461528955 0 0 0
480 3 -0.7581945508849887 13.001147876468588 21.20581454909979 9.231351103895706 0 0 0
1235 2 0.3286508323040851 10.00334696277977 22.566443428475324 11.327036626243297 0 0 0
1195 3 -0.8032963892688413 12.40385840893544 15.550763583998979 9.440751515789957 0 0 0
1451 2 0.3416578316212985 6.843746273695394 19.245470350924386 0.8280809712356728 0 0 1
419 3 -0.8542542224464668 11.07071960942814 15.754218511754267 4.365112001117034 0 0 0
1086 2 0.3756063928795751 5.085328616062952 22.45567050814059 11.11193266355164 0 0 0
1620 2 0.3608093356377239 1.3889918830961883 15.484303203014072 1.8629217265758895 0 0 1
146 3 -0.723440938984377 1.8970878473796153 15.422318461692404 9.045290956406944 0 0 0
1332 2 0.3751341396683202 10.831313493566931 21.05668989059981 11.104456715033145 0 0 0
1454 2 0.3514491511981183 12.792030207461194 20.17816618611882 2.0840472237230623 0 0 1
1630 3 -0.8888293952832513 11.282617820545683 19.678366154731226 0.0940142830819091 0 0 1
152 3 -0.8025150547918547 2.074161702508961 16.499879523090396 11.304858374195655 0 0 0
1266 2 0.3535710490254745 2.731390241361967 15.74480774098854 11.337133687166657 0 0 0
1169 2 0.3426968707393405 9.008720784380312 17.265178862360465 11.204544957505279 0 0 0
113 1 1.357328637879581 2.538145739193873 18.44121602547132 18.56977509903679 0 0 0
123 4 1.19494297660331 4.046529539419182 17.284488430097237 21.46017301456468 0 0 0
124 4 1.078646270508901 2.4388712870741576 18.573136804126346 15.384160112966239 0 0 0
1335 2 0.3228104757897438 12.357975273602888 16.45539694708492 12.254340504270477 0 0 0
401 3 -0.7440383952914099 7.2895091843639666 15.870851468798621 13.726650998729433 0 0 0
500 1 1.397868786786403 12.438094753949356 21.93773156436997 22.34971986600403 0 0 0
1347 2 0.3690832272914055 12.811079344690809 17.308543083808768 14.08417766392919 0 0 0
140 3 -0.727795086948251 1.7073239686899992 18.096113776413773 13.95890744182878 0 0 0
141 3 -0.8579433505279783 3.3729857106695778 17.42360602066093 16.06036495906435 0 0 0
1138 3 -0.7966112428988158 2.6464668960314226 20.294933008874704 11.696640162763192 0 0 0
159 1 1.43471052462136 5.762814844735052 18.41721964246956 16.144466287957542 0 0 0
161 3 -0.7695294442755072 4.490516759549569 18.321269873177435 20.30406214001861 0 0 0
163 1 1.472719257880323 1.0575918870818128 21.43484758788412 16.616807610341176 0 0 0
674 3 -0.8903369185842858 12.885171427240477 15.70847526722747 15.952219293563688 0 0 0
169 4 1.097059515114613 1.2143954072454535 21.224524184617355 19.857476602472218 0 0 0
1333 3 -0.8484393814253209 11.584417719104568 16.873724015748305 11.827184804816694 0 0 0
174 3 -0.7728249830770392 1.365063256475965 22.05421411303929 21.283454300819216 0 0 0
175 3 -0.8419165569506489 3.688037834664754 19.56804661233515 14.850941872997836 0 0 0
132 3 -0.736577178100123 4.029138378556124 15.818285943989654 20.638338504832944 0 0 0
1334 2 0.346703782402971 10.973259150755272 16.232871870364857 12.226295753557443 0 0 0
178 3 -0.9263235484850758 2.4603672003805404 21.017020660279744 18.841966873122374 0 0 0
183 3 -0.9040962217833053 1.3773115807364125 19.161961299572763 16.480795325875647 0 0 0
192 1 1.464513473187945 4.4037376521417295 21.496693714221124 18.13001603930087 0 0 0
196 1 1.444942205319688 4.3052592112818555 18.423166183496942 12.750906455215517 0 0 0
198 4 1.140858040089809 4.360542350350114 21.112143826116625 15.06776712666554 0 0 0
138 3 -0.7771737976739025 5.347850001158382 17.222841323909154 22.48197428493272 0 0 -1
203 3 -0.7765426248425097 4.591885559815392 21.966324082170512 13.727428760026692 0 0 0
204 3 -0.9159295166201531 3.4759143914798263 22.038181755992838 16.161814387309832 0 0 0
205 3 -0.8765619677364715 5.766041183008931 20.802794754073368 15.878682813198338 0 0 0
209 3 -0.970313947985027 4.620535534252032 19.244277979696697 18.030361449451476 0 0 0
383 1 1.425507185322834 8.946993859497914 18.531579525100188 18.61848377318256 0 0 0
393 4 1.165970592029579 7.631034530251608 17.37477996121812 13.092709234317955 0 0 0
394 4 1.225385951333271 11.690903598680691 16.50396830578065 21.761890071955314 0 0 0
395 4 1.14176211779005 9.283927631686948 18.52757288885968 15.513276948526245 0 0 0
396 4 1.150512512233773 5.601944279769698 18.919076965635583 19.247873674399543 0 0 0
142 3 -0.8797621119765535 0.21418495415393835 17.529521821838816 18.908240658598594 0 0 0
1313 2 0.3843781194801714 0.7298602929078744 20.273422190182256 11.666737396266115 0 0 0
409 3 -0.8034886698503454 6.325911979278649 18.284125131320568 13.484124842659421 0 0 0
1494 2 0.3385279497041394 9.535028226219243 17.568350017567592 21.528941453872818 0 0 0
411 3 -0.7663703302081001 8.902582006538589 18.095173956212445 13.962505925222768 0 0 0
412 3 -0.8414434210511034 10.002608862887005 17.306483739646623 16.312574486277512 0 0 0
413 3 -0.8347749662874515 6.796376539392433 17.970941503021045 18.702169282974594 0 0 0
429 1 1.460818595585301 12.488106449175492 18.235128460962965 16.447593019435836 0 0 0
431 3 -0.7653656294389614 12.477696500279023 17.692696484190453 20.9068230464919 0 0 0
433 1 1.447801044682717 7.930046165067284 21.50640858362757 16.36049265387235 0 0 0
437 1 1.354004832331627 9.48850298043228 20.655102065170635 21.42787885640793 0 0 0
439 4 0.9565143847355688 7.510144805095269 21.46843666675381 19.435261478541705 0 0 0
444 3 -0.7558392105066752 7.848504071777141 22.08535512452029 20.883257331207687 0 0 0
445 3 -0.8675353470475485 10.261961325638524 19.77063808876669 15.308148594211964 0 0 0
446 3 -0.8116804991498591 6.1976413259193714 20.424654286569584 19.693920136680525 0 0 0
447 3 -0.8908620915072979 6.952016321399376 22.493867500944187 18.343349540461496 0 0 0
448 3 -0.9208872439269127 8.833571912325777 20.780192833515386 18.742921713522726 0 0 0
452 3 -0.9074200074067768 8.08641934002808 19.10806415188087 16.379370801317954 0 0 0
462 1 1.418641799901583 11.355735996857366 21.345398751348384 18.490368039300428 0 0 0
466 1 1.424078944442878 11.207828157418778 19.237156411730616 12.977428178484748 0 0 0
468 4 1.105940129577734 11.056230240594987 21.127378530932504 15.466986128086319 0 0 0
664 4 1.138707775937102 12.6444508226274 18.33703455944187 19.39141604345663 0 0 0
473 3 -0.7587744537331105 11.403666792953986 21.660977375211193 13.957718090484446 0 0 0
474 3 -0.8801891979835322 10.172768842268459 22.23193413360106 16.267295629652693 0 0 0
475 3 -0.9216533063201324 12.295545404667765 20.7188808417039 16.451533279082533 0 0 0
479 3 -0.8972203229443327 11.238540693365644 18.808393566242977 18.753099843919514 0 0 0
1293 2 0.3661827091875536 1.6075721065855189 20.55039412647584 13.569528352852203 0 0 0
1390 3 -1.039415552431122 10.898956472376463 21.79116893592173 20.501489909817188 0 0 0
1137 2 0.3563525070894841 1.2279910258247746 16.110576530797278 13.525243237644455 1 0 0
405 3 -0.8376146983535087 9.624564382812213 15.904994064238876 18.588464318709725 0 0 0
135 3 -0.9269848477812745 2.5525849342405396 15.883125713214222 18.46798014877473 0 0 0
469 4 1.10265170597927 11.686791115749617 23.116283070510747 13.07307920511826 0 0 0
404 3 -0.8924018771869718 6.264262268856177 16.229376543138887 16.0334244957797 0 0 0
1288 3 -0.8399513420370479 8.049525869481368 21.092168487237934 13.577682094449152 0 0 0
1289 2 0.3163874657996087 8.448451236569094 20.251988660317085 13.70739924768555 0 0 0
1290 2 0.3253252119336767 7.137972991093391 20.872645835582816 13.64262203701185 0 0 0
1291 3 -0.7685960886911819 1.2855252878386167 21.316707023820754 13.952226998959116 0 0 0
1239 2 0.3732571787456589 0.688736290450421 17.955127043647185 14.1398518806287 1 0 0
1631 2 0.3405139525305885 11.607224620839023 18.95794926772907 22.21692835873821 0 0 0
176 3 -0.8230431687188153 0.8191950917646381 19.683043298986636 20.260816109865836 0 0 0
1605 2 0.3772532473938632 5.930374503846702 16.582159188472776 22.111595061855013 0 0 0
1265 2 0.3753166517583027 5.41908094451555 21.062879547615132 12.477842215693132 0 0 0
1264 3 -0.8241606212591027 5.754161691162743 20.470628748204863 11.75463433172311 0 0 0
1492 3 -0.8845202841700663 8.728681933231567 18.038125899713755 21.07391025172575 0 0 0
1345 3 -0.9315750802990018 12.502979171813452 18.207513188414513 14.351912171665303 0 0 0
1534 3 -0.788695980747128 7.110919058106057 15.640396996658437 20.742348396163564 0 0 0
139 3 -0.8097215292049239 2.7944078219591537 17.596414431804934 22.366826936052313 0 0 0
1292 2 0.3473397809042061 0.5494568361633041 21.606749096343844 13.331005887011951 0 0 0
716 3 -0.8057235216159948 13.421848215369481 19.77396619348674 19.36111106341376 0 0 0
230 1 1.22757716979532 5.325659268170806 22.75482285117569 21.027408211091668 0 0 0
1493 2 0.397517792712935 8.037805004011082 17.37679895209096 21.23648994016741 0 0 0
483 3 -0.7748694202515685 11.874769226267194 22.591399488854506 11.538856924454334 0 0 0
1139 2 0.3196053386817531 3.0278796689752285 20.987415053297127 12.239632598250731 0 0 0
423 3 -0.8555967591577865 8.099482469180662 17.38303791561297 11.537188657877573 0 0 0
1391 2 0.3676697510799112 10.417725901036158 22.689801217264392 20.54274176628966 0 0 0
1177 3 -0.8439549283918807 4.159813705317636 15.987410579732062 13.663396276861317 0 0 0
1178 2 0.3238149098873674 4.973295117030475 15.47606847918639 13.615831336187332 0 0 0
131 3 -0.8187273237032492 0.43797748574928236 15.545954190463702 13.608076090769659 0 0 0
410 3 -0.7733442055740116 10.50939617472602 17.052674948063792 22.682526351121716 0 0 0
177 3 -0.8920483601831687 0.05585763049867529 21.935674277608403 18.946588164200875 0 0 0
408 3 -0.8768665847777473 12.914306732570811 15.819110734963278 22.604193147018613 0 0 -1
166 1 1.314004848405997 1.2201433837281264 24.045612641248105 4.183565535503527 0 0 0
173 4 1.197252826547206 1.2657871868091033 24.225494814558648 7.38921093986996 0 0 0
1372 3 -0.7612964604295983 10.094429464840852 27.71237900997514 2.2923380433590625 0 0 1
1383 2 0.4012828770766607 7.023158411764256 29.762326381378514 0.6891053674440626 0 0 1
195 1 1.460756732136971 4.394709777411874 24.122561701320375 6.4790587623013085 0 0 0
202 4 1.074965061422791 4.924323435523303 24.26908833153111 3.4973869635099506 0 0 0
511 4 1.111803009312682 9.054843030558489 30.565091705549133 3.8581609930501 0 0 0
307 3 -0.8600286431371384 11.145836157255145 30.814440869220913 7.50201068690725 0 -1 0
219 3 -0.7722721524913859 2.3521403971071795 25.41340289246304 7.848304237921298 0 0 0
220 3 -0.9108970195964511 1.2232528032459247 26.54287793452847 4.0691882262281895 0 0 0
225 1 1.471014744726056 3.347838982903595 27.08487320956359 4.334245385591029 0 0 0
226 1 1.465922008616774 6.471462104013631 27.062046384948157 6.877669241266164 0 0 0
227 1 1.35067335320695 1.8659897278985897 30.14345180312676 6.238731954662908 0 0 0
228 1 1.359536494351347 5.362010905887762 30.165258599525302 4.684510872897461 0 0 0
231 1 1.451289715362977 6.749689333647494 24.609132954772825 0.9689778948852535 0 0 0
232 1 1.51761087482401 4.281626840385607 25.543292120887344 10.015208309477531 0 0 0
238 4 1.107683678326836 6.657587504489645 26.928314176997972 3.534888239963761 0 0 0
239 4 1.122307289849199 2.96049814936139 26.886757658360548 7.497366244676774 0 0 0
240 4 1.294355648783021 3.1786637919370824 29.136776478879934 9.615519259078187 0 0 0
1163 2 0.3929206102325779 5.332968386741398 23.440800447362644 8.934466641572076 0 0 0
1236 2 0.3064170350339471 7.7219713933585075 29.35528186423388 10.500233457314655 0 0 0
1629 2 0.3565204464779734 4.883919186937449 28.46774713153427 1.5776749380515913 0 0 1
257 3 -0.7690044894430016 7.555445470349148 26.66834452016704 1.551100134629618 0 0 0
258 3 -0.7719492756833497 3.1428710966096434 27.624431903035944 9.050846049872227 0 0 0
259 3 -0.8556932640808926 5.950777692338871 25.45522459496579 3.2974806765209985 0 0 0
260 3 -0.8377314046534706 5.548346908369427 27.552252055433776 4.537708397621548 0 0 0
261 3 -0.8918365748312298 1.9788003906126999 27.660170446104452 6.506074918117356 0 0 0
262 3 -0.934142915878336 4.3217745253403965 26.56077253394955 6.720648545334019 0 0 0
536 3 -0.784451200977351 11.859493808074486 29.43973173223443 9.629714483127726 0 0 0
264 3 -0.80170687554911 1.8945399360161312 29.90760108719175 9.06011878356428 0 0 0
263 3 -0.763913008240622 3.30807590852704 29.32722638936335 11.218583961510054 0 0 0
266 3 -0.7286430985499237 4.496819537213474 29.915829787375433 8.993393424690792 0 0 0
267 3 -0.8732298016899895 2.842538423421535 29.25746354404822 3.962906521267108 0 0 0
268 3 -0.878775277048072 6.430137438237772 29.240318154501768 7.0692390674988195 0 0 0
269 3 -0.9319739643139423 3.630989106019684 24.709540935455273 4.37258857556567 0 0 0
270 3 -0.920036110978433 6.8534016383752 24.82133203378175 6.835482953016811 0 0 0
436 1 1.321032804222779 8.00594306537792 24.12032292592347 4.581126237719782 0 0 0
443 4 1.147515930130364 8.045426818160252 24.28135913650173 7.766204754079915 0 0 0
1152 2 0.3406939519194106 8.013870743732882 23.564937099854163 9.92364525691597 0 0 0
459 3 -0.7460838996510338 7.509391180902236 23.504877664569296 9.121957637977768 0 0 0
1542 2 0.3753460857342789 0.16687983944621054 28.826394233867784 0.5351538073548078 0 0 1
465 1 1.394287794227187 11.371787198720686 24.185466961174644 7.002877771968278 0 0 0
472 4 1.152513027937584 11.536340607116541 24.38360701915744 3.8951073162761216 0 0 0
458 3 -0.8089766523530327 8.410729991388793 23.592569363862776 1.8902536944128387 0 0 0
484 3 -0.7870284314976702 10.964336067892097 23.67806681724627 2.551160116118516 0 0 0
489 3 -0.8343220177782167 9.164811145764302 25.377445816065446 8.192014113176878 0 0 0
490 3 -0.8384205288018725 7.966176211465727 26.916796732499538 4.468309201207548 0 0 0
495 1 1.441749386023198 10.123304719584135 27.366089610846338 4.948776188954688 0 0 0
1096 3 -0.7980820525132765 2.2484859162118855 24.590222745627575 10.7433764366963 0 0 0
497 1 1.330164539328403 8.687032213878611 30.266466538523655 6.997439784844019 0 0 0
1445 2 0.3455444104272542 7.046104198153254 27.31183325152623 1.1053084691362227 0 0 1
498 1 1.411380109947389 12.079402770309486 30.329340989315885 5.017880133225334 0 0 0
502 1 1.382843214559622 9.951418758858424 25.36648450609652 10.718830702966809 0 0 0
534 3 -0.7384345414139935 8.376452308260662 29.912770534775845 11.02300074643118 0 0 0
510 4 1.11624415930822 9.873850721023587 26.920465608648364 8.121860662821806 0 0 0
241 4 1.204617768297892 2.366996731431484 30.490078974114205 3.0359491441282254 0 0 0
512 4 1.147594744136204 12.383188806836783 30.134859261381173 8.230338631810742 0 0 0
1628 2 0.3394460110620944 3.424870410567837 29.03727708383497 1.5692346324077557 0 0 1
1446 2 0.3417656986645509 7.267340119466041 28.986892965413443 2.6330509841543686 0 0 1
529 3 -0.7520923711144168 10.32105793565901 27.337163090463413 9.59422689693112 0 0 0
530 3 -0.8722239984208034 12.596738226561403 25.533731365837497 3.3760519768935433 0 0 0
531 3 -0.8565739850234967 12.325473872285947 27.921628448778485 4.528140727825172 0 0 0
532 3 -0.8332534152625728 8.916749553046294 27.956559332967593 7.329295400465635 0 0 0
533 3 -0.8953097395717045 11.136781024307796 26.594631105026984 7.218032986460554 0 0 0
1627 3 -0.7862092195791808 4.226634042309332 28.79314791582816 0.998354579446272 0 0 1
509 4 1.112712695488156 13.363704540634366 26.966047913587573 3.6555876111547474 0 0 0
189 3 -0.7541783358558125 0.622809875347279 23.572424723693846 8.703172563205605 0 0 0
537 3 -0.945380784107964 9.89562935866392 29.53887013975129 4.811397249798056 0 0 0
538 3 -0.9299801253100427 13.14695968408842 29.26715603520757 7.147531807408667 0 0 0
539 3 -0.882888297626937 10.293106445588034 24.83345247664243 4.783301711523006 0 0 0
501 1 1.447480814340812 13.101912167040537 25.10108996533518 1.1964579272090023 0 0 0
1114 3 -0.8017553300144287 6.09445195982599 26.643279739568026 9.509780018189998 0 0 0
1115 2 0.3747133492839744 11.302600125756483 28.572176053368253 9.514631153106935 0 0 0
1116 2 0.3689320303005849 6.84475936090657 26.665683594712768 10.15717683008721 0 0 0
1478 2 0.3173928217271773 3.096612163384132 25.534484343068474 1.5741133958018096 0 0 1
1593 2 0.3456515744031358 9.81143497267463 28.655600105777474 2.310286872993964 0 -1 1
1162 3 -0.8992063540658898 4.519959910492865 23.844796750948756 8.625384711858452 0 0 0
1479 2 0.3580049980123904 3.8343054680183415 26.76875017050199 1.230581065615102 0 0 1
1477 3 -0.8343309621917618 3.0377217371614025 26.479593280080895 1.7065049327167954 0 0 1
1430 2 0.3441780480022959 4.894684592289212 30.42129761160829 0.8807668660610637 0 0 1
1080 3 -0.9729931257133622 0.08153757799541556 24.781980242590326 6.407200782106794 1 0 0
179 3 -0.7763536704830329 1.7202431146795538 23.294569175130185 0.8064952897648604 0 0 0
1443 2 0.3506770948228883 1.3395031130366808 27.03959935707891 1.5031316543005504 1 0 1
242 4 1.178732293341081 5.363198953080892 30.318706040797174 7.677148573224157 0 0 0
265 3 -0.7609100639498005 2.1851068310641195 30.216325195265817 1.4230701196481148 0 0 0
214 3 -0.7981768430828146 4.351900400120123 23.668903479570073 2.0622587917712507 0 0 0
1098 2 0.3897755763378949 2.080836535304755 24.2459364624572 9.87721254161925 0 0 0
1373 2 0.3695006411342788 9.327710220986303 27.233282191217945 1.899611123878879 0 0 1
485 3 -0.9030345600804963 12.315833149460087 23.345073280746146 4.816010967139561 0 0 0
1201 3 -0.8126473740489943 11.823364701050613 24.452973422213216 9.691562853907756 0 0 0
1444 3 -0.7268926508226546 6.364286817504407 28.712874827473897 2.7167332031266365 0 0 1
535 3 -0.7608547112919115 9.143179008917288 30.33802136694887 2.280205730340042 0 0 0
1592 2 0.4071995938711929 13.3164030396239 30.580064589503355 2.2381569958206184 0 -1 1
1202 2 0.3436111352367731 12.597199155078474 24.94942832489068 9.960998169245336 0 0 0
1260 2 0.3541293476505707 12.141637158867857 23.298539501043805 10.813437902313668 0 0 0
1067 3 -0.7571094838890793 0.346992952666725 26.991988189139473 1.594924212714682 1 0 0
1421 2 0.3074494916864925 11.071044482836088 27.263421374598302 0.1779229626777893 0 0 1
1569 2 0.3344844766746011 3.4201550064282924 23.58241663257774 1.809699166122651 0 0 1
460 3 -0.8291976623780078 8.867104785496593 23.202663153400554 6.891047163466616 0 0 0
853 1 1.510961752597088 0.1325129121986311 30.727987969743776 9.86566451631814 1 -1 0
1352 2 0.3699137930171117 0.3771405680014694 26.79819258414424 9.697943796073137 0 0 0
1351 3 -0.755920460793105 0.11501871461116786 27.261310675062266 8.869135697668183 0 0 0
306 3 -0.8475866213012089 7.5751720394468025 30.64508724351777 4.619991940613942 0 -1 0
190 3 -0.917252611895404 2.1407578459100143 23.303958076977153 6.43247221055351 0 0 0
37 3 -0.9461094862973862 4.287589129731926 30.76493680156009 6.565524747587058 0 -1 0
720 3 -0.7739039105881609 12.996462750581008 23.901632799674783 13.674825283910916 0 0 0
1420 3 -0.7812815591064397 11.530417237417465 26.550472927688013 22.40100849983458 0 0 0
180 3 -0.8715387035922341 0.507930302434423 24.357346580047896 21.421021590651897 0 0 0
494 1 1.462565022181389 7.131942357874365 30.427010048585277 15.693807767238356 0 0 0
182 3 -0.9450317776529706 0.9008980125468838 23.663094648003586 16.52303184591355 0 0 0
193 1 1.351485311496814 3.0613105782363967 24.381550974443083 16.31097997245527 0 0 0
200 4 0.9957469750680339 3.604138704954436 24.731702444792624 19.537623515260847 0 0 0
206 3 -0.8449883811539187 3.4223788959399246 24.342566196322196 13.62640060124695 0 0 0
207 3 -0.7776183812330657 3.198853143947634 24.091222193957563 21.099481550866052 0 0 0
1381 3 -0.8524084013919203 9.193377897111398 27.864260882755055 20.521291700996287 0 0 0
217 3 -0.8741181411973914 0.9196846878686543 25.89538630792743 15.104341567137071 0 0 0
224 1 1.381006062059987 0.48435897457927757 30.50925531083665 16.475447944749142 0 0 0
221 1 1.511097238369949 5.004299787261983 27.478115314053746 16.319614666699763 0 0 0
222 1 1.417902645699506 1.9099110276669864 27.48685098852468 18.616560715823077 0 0 0
250 3 -0.8549074120855632 4.319786803927541 30.540924799201175 21.110431824225223 0 0 0
5 1 1.448953798908217 2.203752628229493 29.938360584303055 21.875380968620426 0 -1 0
229 1 1.533834430341676 1.7301922026233616 25.280491870892117 12.88379704116498 0 0 0
1176 2 0.3185191870467223 12.40680282694577 26.365970523256603 12.279131218846443 0 0 0
233 4 1.168038850392047 1.6933308836023389 27.27862616895248 15.384474639837766 0 0 0
234 4 1.130562290190079 5.221945338976672 27.407079416895826 19.436928659385856 0 0 0
235 4 1.12529717272004 5.782944447424039 29.779896439595692 21.461818242888306 0 0 0
1245 2 0.3322758909335544 2.444989849091331 29.52036316343934 14.13359551603375 0 -1 0
1230 2 0.3386336262665449 6.163828913577047 28.577076812822263 13.445031432513364 0 0 0
243 3 -0.8296820147725487 2.2669071376162 27.730423967792863 13.937735443752183 0 0 0
244 3 -0.7079613146660679 5.6578913738183205 28.181101789709224 20.8570204206273 0 0 0
245 3 -0.8086640433337898 4.697499096989242 25.862552373303217 19.866019995038748 0 0 0
246 3 -0.9724939054386145 0.7912504467148231 28.212688877108235 16.277607914914498 0 0 0
247 3 -0.9192858844516923 4.028967106989214 28.173719669052094 18.705209691587008 0 0 0
248 3 -0.9355659329977316 2.9681991853982 26.879485422605 16.275025837271613 0 0 0
171 4 1.116016563085487 0.0026207011681483247 24.607347069916862 15.596065343955802 0 0 0
523 3 -0.7672217522900007 6.690731601334571 30.540328756552306 20.33549152259304 0 0 0
499 1 1.43179896036439 8.273366201577128 23.73780240156194 12.984360065650668 0 0 0
253 3 -0.8233347925241876 4.521134101793611 29.678810424730504 16.189450917821887 0 0 0
254 3 -0.8857382812977834 1.5863889842905872 29.68022229606811 19.426937279841617 0 0 0
255 3 -0.9267073068247771 5.365661435809655 25.337831815565707 16.095948108636826 0 0 0
256 3 -0.8881612572281438 2.256179550725527 25.200223337506113 18.74364707568065 0 0 0
434 1 1.425709619608845 6.636379813997405 24.690104246813238 18.292804617592296 0 0 0
440 4 1.040424488360082 6.59419714541662 24.764307082856902 15.17678130430484 0 0 0
450 3 -0.7829235361159566 6.063265596707658 24.050952505772496 13.688004936404168 0 0 0
451 3 -0.8992251294484033 7.529745944557818 23.67941183495894 15.875174882298206 0 0 0
463 1 1.341517688100965 9.904500406233552 24.576115347263688 15.957520837461876 0 0 0
470 4 1.113976207028079 10.17594027828116 24.881064431477625 19.067038196165285 0 0 0
476 3 -0.9042277383343524 10.280213892182466 24.110456609777266 13.249863991799666 0 0 0
477 3 -0.7548834275785895 9.99401457136492 24.432916686928596 20.629462587940786 0 0 0
199 4 1.255429987806935 4.647216745395679 23.445004675118835 13.07773017765343 0 0 0
487 3 -0.7891831469129412 7.709960258704561 25.84243438764845 14.575427886247272 0 0 0
488 3 -0.9154850205388941 6.431403942868263 27.017896303918455 18.418585707751284 0 0 0
491 1 1.417313522506914 11.930199029502035 27.580198130979674 15.548395784026138 0 0 0
492 1 1.528538186523793 8.576527857079899 27.646463809148003 17.88996854395898 0 0 0
1602 2 0.3808314698600279 5.508553060692012 27.189274577757367 22.32463432278054 0 0 0
758 3 -0.8791995374386384 13.05103823626816 27.141838784012567 17.91375171136366 0 0 0
1435 3 -0.780423937603866 13.366117929680188 24.45840705635029 21.791505135887668 0 0 0
1422 2 0.3335093901895078 11.764603681883596 27.046856122048712 21.568836407267966 0 0 0
503 4 1.126877850262158 8.316279244208106 27.38427869929522 14.7346856212571 0 0 0
504 4 1.242867785764544 11.742003053532322 27.589804179854596 18.72571645047133 0 0 0
505 4 1.160504154931219 8.410637648639907 29.616529247353494 12.606792398144114 0 0 0
506 4 1.14490377030745 12.18575184822762 29.96884304815583 20.75857647359915 0 0 0
1085 2 0.3607644684624859 4.827040743924498 26.902588297918097 12.558914208042655 0 0 0
1540 3 -0.8382411295752524 0.42466323862599 28.799040635959237 22.30511831166291 0 0 0
513 3 -0.759862125977089 8.32181302742776 28.115654968749947 13.265303014117839 0 0 0
514 3 -0.7570095657357141 12.117407382599843 28.474895694792096 20.104159307651194 0 0 0
515 3 -0.7712960827939097 11.131564932234342 26.212719584561533 19.1735621628538 0 0 0
516 3 -0.913136266882599 7.384757410533202 28.205466954374828 15.802656866573045 0 0 0
517 3 -0.9303027074002688 10.790091656786629 28.367297675762284 17.760049949320695 0 0 0
518 3 -0.8863122609764724 9.723853504925094 27.061089242795084 15.490791418065532 0 0 0
312 1 1.352733525860655 11.897705453774643 29.33622921506584 12.253531668950929 0 -1 0
1505 2 0.3283734019081671 3.155241748090109 26.530797562528104 21.09766847147536 0 0 0
522 3 -0.7850415688598197 9.901841382962331 30.18952534418122 13.195622946736297 0 0 0
223 1 1.402623636959052 3.758142039934985 30.603979805083455 18.571327311250165 0 0 0
524 3 -0.9590429628275926 11.846723177524815 29.714186262658988 14.734958108892922 0 0 0
525 3 -0.9131523542346992 8.03807129400533 29.6839340549054 18.074168519375355 0 0 0
526 3 -0.8863016590755648 12.192613579753738 25.325882475575817 15.760422956892493 0 0 0
527 3 -0.9276403360713201 8.809955054183913 25.35420530766344 18.19639872027927 0 0 0
1175 2 0.2938259305308708 11.279095249066167 26.001131829452774 13.25784167649063 0 0 0
1213 3 -0.8148996526096204 0.39300457785909654 29.80426436937575 12.24734389658485 1 0 0
1554 2 0.2885862926278266 8.504299921489421 27.768108612889332 21.228449746628726 0 0 0
1434 2 0.3682701082065413 10.649821618022024 24.865571131320827 21.240289543565282 0 0 0
1097 2 0.3426457667541348 3.1771091943599354 27.77052822061745 13.804393536307835 0 0 0
251 3 -0.8360586739404217 2.4868124546329473 30.51961347488116 14.358680888486125 0 0 0
1174 3 -0.8707286012158688 11.616570814782579 26.736727385343308 12.728236235199935 0 0 0
1215 2 0.351901377680358 1.255318919963778 29.3713307287423 12.371046518933387 1 0 0
1357 3 -0.8642267422620529 8.076785772072208 25.971694370190562 11.5207359785992 0 0 0
1432 3 -0.8777741112592908 7.11915523375557 24.909149550094284 21.009111051181947 0 0 0
1431 2 0.310905056934548 7.224175671647607 25.855553280997285 21.095734053583413 0 0 0
1228 3 -0.8194789042351285 5.2492827824310115 28.300036396502374 13.69005976438145 0 0 0
520 3 -0.8260304641690134 7.285424009841054 30.533304223863514 13.31930188169147 0 0 0
275 1 1.438783378152996 9.210681701926749 30.345727648566562 21.44585451691662 0 -1 0
1504 3 -0.8862596159713659 2.606687025254673 27.275446227186244 21.470255780384278 0 0 0
1433 2 0.3389396682243066 8.072597611603953 24.505852385455537 20.92569802439747 0 0 0
170 4 1.07804955986383 1.8115749092142805 23.56667689808591 21.87653965549388 0 0 0
1084 3 -0.8636499196435702 3.9868596534647773 26.774412000212063 12.045615517462645 0 0 0
1229 2 0.3297519202505634 4.684424146229697 28.89309287146212 13.227341983333831 0 0 0
208 3 -0.9802846977206054 4.441251643012103 23.533651032490216 18.74316521516011 0 0 0
1506 2 0.341575980257065 2.7727161433566883 27.19433369624029 22.39903791656114 0 0 0
213 3 -0.7882676117986724 5.070339836555561 23.338842205348048 11.513760742740923 0 0 0
478 3 -0.8969954164462338 11.12417552504295 23.955439651361914 18.149224182609935 0 0 0
1359 2 0.3904794161698249 8.071236027599685 26.645587697975706 12.161680923356215 0 0 0
1382 2 0.3489433347410401 9.866398195442864 27.264634103997444 20.803382010558245 0 0 0
1601 2 0.3696667054179963 5.160543875024555 25.93527913157819 21.48260096364462 0 0 0
1040 1 1.39674682787374 0.10557664233452146 26.49874396614654 21.618802203961522 1 0 0
519 3 -0.8398099720203992 11.667694702405019 30.00796168111456 22.359892839247323 0 0 -1
1600 3 -0.8128811988712672 5.254681141361156 26.23401669137666 22.51812424005621 0 0 0
507 4 1.087980752552362 10.676943279099648 30.79072799289285 14.520081753204868 0 0 0
1166 2 0.3347512580715295 3.882338857961434 30.162365434980046 11.409780975029165 0 -1 0
704 1 1.463524793195108 13.139415221892468 24.536496764067888 18.148671403559 0 0 0
493 1 1.397408323095868 10.430457379007093 30.733490131470173 17.793462178120784 0 0 0
249 3 -0.7789766196489297 7.49475064774642 29.470070027056128 22.610521127086344 0 0 -1
1358 2 0.3726299381720563 3.662292265440363 27.717237175807217 11.940521923584217 0 0 0
521 3 -0.8459744921018827 10.963251841874069 30.640724294382142 20.05818981955639 0 0 0
508 4 1.085628390313016 7.304319069713206 30.83009554460706 18.878349927987173 0 0 0
1374 2 0.2994121331245975 11.719901011194633 29.10348805363477 22.578730348183868 0 0 0
543 1 1.421008662370741 17.620316682587756 2.4260717843933013 7.168610027766811 0 0 0
544 1 1.461299649741086 16.034960732307155 5.616459813026292 5.363005463028759 0 0 0
862 3 -0.78126485176301 26.18411250899042 5.11614273252334 9.038835201824476 0 0 0
551 4 1.144234955926484 17.1561070729986 2.339481353700404 3.955688273811549 0 0 0
552 4 1.107065652431836 16.321539295335807 5.773197889961015 8.497640373639545 0 0 0
1109 2 0.3773540760411975 25.319435791774836 1.6372174509593638 10.383656415505214 0 0 0
566 3 -0.770673404778455 17.569917317667297 3.029896184456206 2.5250461075469715 0 0 0
1110 2 0.3566855626101501 23.248084200973516 2.3450369604884163 9.183684571045227 0 0 0
568 3 -0.816981881611976 16.43537191914008 0.8796892741819248 3.626972854486398 0 0 0
569 3 -0.8876939777317233 20.298967359577045 0.6131375865608187 8.0823241885488 0 0 0
570 3 -0.9135550054527377 16.25187140169166 3.1747370047044043 5.015950986346834 0 0 0
571 3 -0.8341844829664198 18.554255771856344 1.749596385659235 4.562991837527872 0 0 0
572 3 -0.8731467639919255 15.557969863040366 1.6457630700134154 7.589912981546074 0 0 0
1476 2 0.3518500181255658 16.36290144289545 4.649146274900988 2.2920770607726424 0 0 1
574 3 -0.8087489681294785 16.091158419637395 5.155652102757045 9.960835690126414 0 0 0
575 3 -0.8625623469490489 16.920377270400135 4.733134246260818 7.377070115267005 0 0 0
567 3 -0.7765879896350828 15.073091391312392 1.9554430016826907 10.041437968019958 0 0 0
369 3 -0.8804702514377759 13.803677271041032 6.751516247812082 4.303361384262618 0 0 0
580 1 1.441314314068523 20.962909274227183 2.401549767826404 4.580829164567747 0 0 0
581 1 1.358974736975868 19.502908850531064 5.497309892982577 7.1551672843172955 0 0 0
1341 2 0.344836835910106 16.922080269926767 3.5626853617188896 9.624580511168288 0 0 0
586 4 1.101942254376576 20.925974773503164 2.0736798054452845 7.701021070432088 0 0 0
587 4 1.182586490103888 19.4807346803421 5.680016667394879 4.089197739951428 0 0 0
591 3 -0.8640280392181234 19.79223593959397 2.9806581290901932 6.97602995324756 0 0 0
592 3 -0.863375552571649 20.430679944881906 5.10216272233075 9.365817585330685 0 0 0
593 3 -0.8019653390328845 18.953252833538407 5.136898351928255 2.6038674381135167 0 0 0
594 3 -0.8513658276267023 20.425837997731005 4.602057086794286 4.775222833848894 0 0 0
1546 3 -0.9221255225851818 20.443595658982613 2.8984779313534768 2.4206828502542272 0 0 1
609 3 -0.8071428244204691 17.62456577974441 6.7870310333999315 8.590753011624788 0 0 0
612 3 -0.8926076123153794 14.989403127725344 6.3384905251899415 7.707549845300696 0 0 0
620 1 1.439579393988629 18.76249876163931 5.248692727463709 10.736225140160203 0 0 0
638 3 -0.8088003394221314 20.424489381979935 6.915138199965002 3.9258204692474123 0 0 0
648 3 -0.9205443967068129 18.378251435311487 6.243064590168201 5.100354990763141 0 0 0
813 1 1.479725131521026 24.319249915940755 2.5279689132955774 6.311242230197267 0 0 0
814 1 1.4419951009256 22.840327464178742 5.603047572496369 4.29531224128153 0 0 0
1108 3 -0.805424884194752 25.684681355712552 1.1154273917822934 11.0575666136573 0 0 0
820 4 1.182669282050529 24.235060725044136 2.254494587641236 3.141512379845668 0 0 0
821 4 1.115529146398861 21.694459043572834 4.225356716444151 9.77298069764318 0 0 0
822 4 1.093950672742 23.208750921292175 5.729455517316482 7.412935385410238 0 0 0
1401 2 0.3271096764403225 16.562194493639677 6.125976252249303 2.225675459996548 0 0 1
836 3 -0.7512139672535499 24.631171558281572 2.1517484506024616 1.6357574969618838 0 0 0
837 3 -0.7529429821142724 21.428890840421353 2.6694535276473474 9.195231262698973 0 0 0
838 3 -0.8131456167277797 23.056939442056574 1.1628181486264246 3.450840200588389 0 0 0
583 1 1.548838133567864 20.8249425545168 0.03146518705602857 10.262960033074812 0 0 0
840 3 -0.861300285611537 23.36697156378225 3.470252410692506 3.7148807333740694 0 0 0
841 3 -0.8994606263025899 25.518155685717122 1.8508896201440903 4.035365544694724 0 0 0
842 3 -0.9384997264187096 22.171216443672147 1.9026941518945286 6.6983233118104835 0 0 0
1125 2 0.345463542115336 19.883119853078647 7.673711386952428 10.199146695314889 0 0 0
844 3 -0.7634301765370292 22.9861280188096 4.937464108224391 8.897610402667572 0 0 0
845 3 -0.9263580732440271 23.936373534987407 4.861742070050609 6.321187329592762 0 0 0
1365 2 0.3744878783570104 16.237533734974647 5.506959288574526 0.003344925833516062 0 0 1
299 3 -0.8424603833796702 13.544494819303722 0.41992506152233067 8.562214836614839 0 0 0
1123 3 -1.000091448827326 19.739488457462066 7.198027378545256 11.042266471298255 0 0 0
851 1 1.379886931134768 26.2265137745065 5.795532782155617 6.3443213698948435 0 0 0
1475 2 0.356835801504609 20.346619300601372 7.287230184819067 1.0086650466627918 0 0 1
1182 2 0.291575962088077 23.942714296483263 1.0606584701283068 8.726910618793069 -1 0 0
857 4 1.05822332023335 26.472620269879354 5.971910339783548 3.38051648506723 0 0 0
861 3 -0.8728489773116183 26.4468333899966 3.0366693136997847 6.40723301775062 0 0 0
1488 2 0.3551607476792678 16.11501787995588 2.551262120789397 1.0605368146277392 0 0 1
863 3 -0.7904793208017183 25.920870470233304 5.246410491593844 2.0780561494626046 0 0 0
310 1 1.45349240259015 14.153659285820972 2.5865060100201425 5.408061051774849 0 0 0
868 1 1.427644986917677 22.155133196843643 3.3770390777527672 1.0874426972011577 0 0 0
879 3 -0.91439076158676 24.231635747869145 6.948019872593017 7.937515916886011 0 0 0
882 3 -0.8509735752615067 21.883108937762927 6.41522389668537 6.758781634672777 0 0 0
890 1 1.575485791521489 24.67394550067977 6.406866650768523 9.92171632489975 0 0 0
1408 3 -0.9394296749508005 22.495634453985755 5.685375134591039 2.061825974145548 0 0 1
918 3 -0.9253889362296154 25.081789650529867 6.536373141084532 4.113601016964409 0 0 0
1491 2 0.3629506010560076 18.5358121369287 2.835592723619324 2.3313014400168584 0 0 1
57 1 1.449468468090159 24.4824208023014 6.2547136520795865 0.8861748444070254 -1 0 1
32 3 -0.7795508334594914 24.13983504932258 1.966692487362497 8.978205312280359 -1 0 0
1548 2 0.362305162751793 19.833899938167306 1.0885866284841497 2.0374353928025846 0 0 1
316 4 1.085158746396047 14.276993065183213 1.8614055241377003 8.611410667065309 0 0 0
1339 3 -0.8849976157725955 17.76112733266824 3.18522472437639 9.715703422693446 0 0 0
1474 3 -0.8400030528744717 16.001386104981982 5.474915695326665 2.644774811911168 0 0 1
1486 3 -0.864300608677757 15.431254503781103 2.020352329501168 0.6197121583072447 0 0 1
1481 2 0.2777334960490089 21.97887355663797 0.8708403343632419 0.743399843078513 0 1 1
1547 2 0.3421980111954692 20.05246215962087 3.753982012655914 2.4931112864538347 0 0 1
1371 2 0.3644810062296402 18.062262076282757 4.666128255902447 2.5818795585329086 0 0 1
1490 2 0.3767742381269791 19.317350115687987 6.049506438231225 1.187427143468388 0 0 1
1083 2 0.3460795507542187 15.179078438905169 5.046615076074305 10.221442014577947 0 0 0
1487 2 0.3496476635243587 14.826835509312689 2.7325122787642235 0.4885984583920059 0 0 1
1409 2 0.3320763541782671 21.713518821257168 6.248478011641141 2.0544086786311575 0 0 1
1395 2 0.3781942329373798 18.881005157553535 0.3500479567342574 0.07205897541813083 0 1 1
1489 3 -0.8364854899691248 19.630118672170738 6.6730249138216315 0.5061927557906258 0 0 1
1126 3 -0.8618248588044343 19.119687892572934 1.031711438381761 11.034660276630415 0 0 0
577 3 -0.8714840995784479 17.938536740336186 0.07318999788708914 7.001610059411305 0 0 0
1370 2 0.3203638780763585 19.45140517219348 4.005309027878337 0.521205601995604 0 0 1
839 3 -0.8707467564181435 26.76044268370937 0.7015462232168242 7.828870997540259 0 0 0
1128 2 0.2536202905674261 19.27346885450186 1.7703341015471818 10.397851414207505 0 0 0
797 3 -0.8579204111435036 19.40429889395881 0.24211841633286707 2.055466755661382 0 1 0
1204 3 -0.7719326588035926 26.776465594227925 7.363523486513655 11.315715202324451 -1 0 0
324 3 -0.8707526499235445 13.67359039922697 4.692328150576253 5.874599294507747 0 0 0
847 3 -0.9114478658239744 24.466004519640297 0.2773790229241397 6.424790829394233 0 0 0
576 3 -0.8826542782376781 14.222113600422094 0.044994431068402 4.958958784838315 0 0 0
1363 3 -0.7948403487654747 14.89212707503198 7.032836845067007 0.34593739658433315 0 0 1
598 1 1.387536213539291 13.53720993962058 6.176344498168351 1.936690511692776 0 0 0
323 3 -0.757048511165745 13.47527425015303 4.040484855264266 3.4029496015446496 0 0 0
830 3 -0.8878004016797739 23.825578082431324 4.088382515242508 0.017353282722468312 0 0 0
541 1 1.410439256918494 16.118820913881397 3.015432991669268 15.327055282340893 0 0 0
542 1 1.387427366927546 14.76770016603193 5.737467819497327 17.571650767111862 0 0 0
545 1 1.423348096680616 15.819388527233432 0.9155850195256476 20.946904266430707 0 0 0
547 4 1.054590481748152 16.05859204752166 2.6042307648037877 18.37350074314991 0 0 0
1310 2 0.3719212758718459 15.213468219434166 4.021343967273187 12.850295461895033 0 0 0
549 4 1.188112493034765 16.279048676437007 4.771576693432397 20.660453270443647 0 0 0
550 4 1.160691651955329 14.663292091079002 6.163431630125675 14.40659893244511 0 0 0
560 3 -0.7135375183728729 16.503018271357583 4.727888929316499 22.268779784896225 0 0 -1
554 3 -0.7635111645799794 16.201092242254322 3.205204949157045 19.961016045993773 0 0 0
555 3 -0.8303779839449197 18.058920816676657 1.5054864880810153 14.02467611108177 0 0 0
556 3 -0.8632114664187513 15.240688913389453 1.205968333593654 18.73386313394319 0 0 0
557 3 -0.9166357512274556 15.02376327556196 3.544102207311522 17.55294591970638 0 0 0
873 3 -0.8037882277477265 22.511059269400352 7.205602671623695 14.578285813243888 0 0 0
559 3 -0.9039169806982579 17.33402639274832 2.2317274033594803 17.44161404483242 0 0 0
561 3 -0.8428641552013333 14.955113476760111 5.624238127968255 20.22546982300382 0 0 0
562 3 -0.7516321148019394 14.144665816332061 5.487330713607971 12.993468543212513 0 0 0
563 3 -0.8998501339329844 15.735924401750173 5.265517596806383 15.167537844242291 0 0 0
1309 3 -0.9204276879333032 15.430725488984738 3.092767800231094 12.750205505965052 0 0 0
1111 3 -0.8669403035276202 13.576424133482872 0.5800027512581958 12.396240397199191 0 0 0
578 1 1.392866441177724 19.505099845546532 2.9451760335013346 17.37975903796358 0 0 0
579 1 1.369867216862869 18.02748568300982 6.106224194038204 15.047234166672895 0 0 0
1410 2 0.3499783531301006 22.3584816751559 6.706370508938408 21.797404888139035 0 0 0
584 4 1.022636932359235 19.139843656989715 2.7189229592781796 14.269459413014452 0 0 0
585 4 1.046887405627491 18.246297932652432 6.010424441605213 18.571491494380254 0 0 0
588 3 -0.8935276357420687 18.384288558973278 3.8464012549063624 15.159914190967548 0 0 0
589 3 -0.795570499621686 17.642885219446867 5.546654854055189 20.17433278021501 0 0 0
590 3 -0.898784792117032 19.30483182313328 4.886691693124883 18.21926533801036 0 0 0
558 3 -0.8484933142510694 13.779971592011364 2.220695955785754 15.213292309449393 0 0 0
834 3 -0.8967326584167247 23.170588365706827 0.5271725406591892 15.644538328788943 0 0 0
1094 2 0.3645846358846802 25.298489527524776 4.613278551168138 12.493216984518321 0 0 0
1095 2 0.3048821398309896 23.868657418617047 4.5216156811652874 12.152980892845402 0 0 0
629 3 -0.7926545820727332 19.386487371118047 7.130321709743609 19.20234372814899 0 0 0
636 3 -0.9142056788068726 17.11071946001613 6.494129736232525 17.4752254537651 0 0 0
811 1 1.380036118204221 22.75812266706724 2.634002333963909 15.689034244961283 0 0 0
812 1 1.406947509686634 21.730957883175535 5.664224258277262 18.090680810451666 0 0 0
1093 3 -0.8136341525154969 24.57981754157499 5.159230650003022 12.227078397726999 0 0 0
817 4 1.08879949192421 22.7223345508305 2.495755246558902 18.83621598238529 0 0 0
818 4 1.043700346174274 23.399923880877765 4.471591367727005 21.145506085884307 0 0 0
819 4 1.031012757024805 21.433795779435584 6.077411108825393 14.993950783795803 0 0 0
823 3 -0.7978217571157447 19.553087455445784 3.6262321051523623 12.834298037339664 0 0 0
824 3 -0.7548558757165564 23.48716661293275 3.0810196031907915 20.24095993167969 0 0 0
825 3 -0.8319683574678222 25.674785799775933 1.1048984966646915 14.87344001254527 0 0 0
826 3 -0.8013147850259212 21.893341738472852 1.1223127292533852 19.183597058487443 0 0 0
827 3 -0.9551100468240372 21.83136120451678 3.563466421804989 18.083161694432434 0 0 0
828 3 -0.8428859090390375 20.522651184182205 2.118236240191317 14.9832845047578 0 0 0
829 3 -0.8789034904924004 23.99621965433833 1.9760256484932024 17.97555376500719 0 0 0
831 3 -0.8489911787009661 22.045790849585657 5.312360042579671 20.881411994472202 0 0 0
832 3 -0.8309687962919341 20.48250668000503 5.972619634293103 13.669682599900186 0 0 0
833 3 -0.8682552534509435 22.259942628758008 4.81453620300884 15.60066349401173 0 0 0
582 1 1.357853506705088 17.31588082936058 1.9570763415673287 11.657682024802666 0 0 0
843 3 -0.8482017044871324 21.917737560886128 4.295317165319097 11.432268045329579 0 0 0
848 1 1.416600299227867 26.304109905925422 2.752585803709656 18.04167921259979 0 0 0
849 1 1.352542385315895 24.730816450499088 5.891909608129791 15.904101190404269 0 0 0
1311 2 0.3655116964328212 14.573400627713388 2.6465639513227286 12.781242802547943 0 0 0
854 4 0.9995536047715968 26.16126447287265 2.674870552285745 15.038640539036711 0 0 0
855 4 1.157853299721256 25.085874392310213 6.01277390645272 19.074649200284263 0 0 0
858 3 -0.8522827598356013 25.089319185326985 3.683534742409173 15.711246399839402 0 0 0
859 3 -0.683771271297084 24.684977854701675 5.361332068642042 20.511541902204385 0 0 0
860 3 -0.8796491466758436 25.99770981853193 5.04519724371721 18.143965877867764 0 0 0
867 1 1.422277238405614 19.839324180734845 5.368537871783885 20.92965563696457 0 0 0
1279 3 -0.7763420382618472 22.7138913178084 1.2236262847444475 11.85937252249386 0 0 0
877 3 -0.8608905755959089 20.381477253936932 6.667879731758889 16.0380008166547 0 0 0
1047 4 1.102376396280744 20.689589354564603 0.07602953339305979 18.57188453564786 0 1 0
899 3 -0.7650610078506851 26.22156894541831 7.167177345034374 19.365175772951687 0 0 0
907 3 -0.9303595542691938 23.737934944851087 6.483828437208211 18.221588734534777 0 0 0
835 3 -0.9123497195534949 19.740160299301635 0.6006680381165097 17.436046723575537 0 0 0
816 1 1.336579236659605 24.70491864580991 1.5640125347546827 22.13757621340561 0 0 -1
1124 2 0.3183852491816798 21.28273569168699 3.818797568068457 11.993505088839301 0 0 0
564 3 -0.9290017553110149 16.096626368606792 0.45737452544121704 15.355851619289622 0 0 0
889 1 1.46148428668849 21.75856539088718 6.827772616188915 12.03408464492801 0 0 0
1280 2 0.3124167385737736 22.38901037430847 2.0390706207416387 12.12549933059689 0 0 0
24 3 -0.9186050671191717 26.557601863938064 0.5651373609640385 18.45196977733997 -1 0 0
789 3 -0.8448728104226415 17.96801555660508 0.245550698362692 22.398408335979497 0 1 -1
1570 3 -0.8033349885379943 22.946026505383127 7.456304901877324 22.108805528999106 0 0 0
1141 3 -0.9433738169845906 17.579285706983995 6.082701765943491 12.430828729957822 0 0 0
1142 2 0.3252378595054249 16.65577524007002 5.886337784498168 12.24019479276505 0 0 0
1143 2 0.34039853553887 20.066411675698173 4.382299343344279 13.222658061447712 0 0 0
776 4 1.118911349091556 17.301785406142823 0.0745037637041657 14.374365052590496 0 1 0
13 3 -0.7842852443128262 26.724010608591634 3.289634631172408 13.577620308256092 -1 0 0
1369 3 -0.7591921610939152 19.84689687850755 3.72691407674283 22.394557949010107 0 0 0
1127 2 0.3513568327784593 23.572064143115828 0.07787060336779011 13.05741867657416 0 0 0
252 3 -0.7218565559757077 26.723624240097802 0.23976754306820974 21.209478141241 -1 1 0
1531 3 -0.7709359135614313 26.495436968666805 7.403197139654283 22.514795301996315 0 0 0
1469 2 0.3362041783910398 16.284456931211274 7.199180737088202 20.279596969876856 0 0 0
1281 2 0.3323007734330006 23.73801762555067 1.3199635341866103 11.772968438475559 0 0 0
607 3 -0.8943047972206947 13.489890451919685 6.332123848538696 15.54532432619722 0 0 0
1532 2 0.3861553355572575 26.50883439786831 7.395506744805565 21.51537429105857 0 0 0
777 4 1.091275822711751 14.08705911685614 0.06163054941966546 18.500194035255724 0 1 0
1480 3 -0.903286341630721 22.07566324034407 1.323312634181145 22.59864304342615 0 1 0
596 1 1.484100134044321 14.690811997441296 8.602038244631581 7.485649166324424 0 0 0
600 4 1.074396152316469 14.619146622101594 8.173328681076281 4.466956813213707 0 0 0
601 4 1.106668659715516 14.859479635556369 11.335472731637216 1.5468461166734184 0 0 0
1638 2 0.3642045236031154 25.293190469947596 9.388843379431519 1.072951683154654 0 0 1
608 3 -0.7219261136339628 14.957879393202834 8.30692939621093 2.8345343215013377 0 0 0
1555 3 -0.7354113909558112 25.05010791372805 12.836275132420138 0.6314011955637919 0 0 1
611 3 -0.8932752026365418 14.546960495084415 10.95647864442958 7.4916279123494105 0 0 0
616 1 1.47619201488179 18.12716531534866 8.559008152771908 4.942326788150402 0 0 0
617 1 1.367397191129019 16.66771360921678 11.688677397381605 7.257674555739589 0 0 0
618 1 1.335812069876501 19.9052277582893 11.756566744297356 4.692376524861536 0 0 0
624 4 1.114650125052671 18.093159181805948 8.299451764568241 8.068611555212627 0 0 0
625 4 1.221372786860442 18.64600908965436 10.559753244328533 10.136088092989086 0 0 0
626 4 1.076171651271821 16.54524588088231 11.605922172253825 4.204199763760808 0 0 0
627 4 1.134358488984132 20.37910079321792 12.078564235315124 7.988536093979046 0 0 0
637 3 -0.7505069365693748 18.59006849067806 9.079950569124708 9.466639789545999 0 0 0
639 3 -0.9007983749024773 20.29622030410092 9.462862324486458 4.317613970416828 0 0 0
640 3 -0.8359527877210881 16.865960477893502 9.015667175214261 7.317056168810496 0 0 0
1081 3 -0.8159335230121475 14.603894982142762 8.47999039037509 10.14318083320069 0 0 0
1268 2 0.3010581452340467 17.085189359098095 13.107554428217405 10.384227878442376 0 0 0
643 3 -0.8142727019662915 20.321742215970854 11.517448541837608 1.7736791510198058 0 0 0
644 3 -0.8592597040328025 17.128565071850435 11.04414921478529 9.813465889123053 0 0 0
645 3 -0.779090901689082 15.985652781958601 10.967818356199441 2.787677594937967 0 0 0
646 3 -0.7544640490157682 19.728559576164518 11.51392334822492 9.414580588285917 0 0 0
647 3 -0.9254981601188937 17.537465926805755 10.639227485864291 5.002351150210407 0 0 0
650 3 -0.8017965142622157 14.589397208633988 13.342341217303073 8.051504542864658 0 0 0
654 1 1.411403823554012 15.288006092696145 14.674073897161643 4.759258843130615 0 0 0
655 1 1.506750507903006 18.756809974313583 14.868655949560198 6.742117199027782 0 0 0
659 1 1.359063567003579 17.972341982807816 10.418963201234183 1.7884039473645499 0 0 0
888 1 1.437851278279347 26.828287034162997 11.605132043932562 4.565066449284444 0 0 0
665 4 1.086005085407065 18.376774516374926 14.18895067826812 3.8072705792367314 0 0 0
666 4 1.168959917431303 15.32706920943523 14.742030398606628 7.759003407969197 0 0 0
1267 3 -0.7610186629093572 16.83850169423029 13.90583697212998 10.937568035887795 0 0 0
370 3 -0.9446075206051939 13.632517208342788 9.27778898080587 5.157715869414073 0 0 0
686 3 -0.815050466209114 17.626510905204402 12.70147012887068 3.6404583600770652 0 0 0
689 3 -0.9243409964259499 19.836740567667633 13.969658188628905 4.468745241570129 0 0 0
690 3 -0.874688061793507 16.72325562516775 14.300972260949909 7.078864770695063 0 0 0
697 3 -0.9154321471922302 15.44078576988996 12.331108625821004 5.146638072437322 0 0 0
698 3 -0.8742161993850734 19.14467302081116 12.624269170127743 7.065335320329583 0 0 0
866 1 1.421411843937617 21.695620311873267 8.646812987142154 6.442843817113269 0 0 0
870 4 1.1260971910366 21.197641382396764 8.303551199826464 3.6261823305513152 0 0 0
871 4 1.176818496917956 21.863051013765833 11.578451465924477 1.1860169296952487 0 0 0
1637 2 0.325135360315039 23.79107378814941 9.29771406202195 1.4660307407751534 0 0 1
878 3 -0.7929566532915744 21.277682642909564 8.352148735481775 1.9694867555761526 0 0 0
1564 3 -0.8960994619697367 21.327367052202018 15.07521220924147 2.0614230766206276 0 0 1
881 3 -0.8468502507931409 21.10078850216715 10.865524891047617 7.118774641297673 0 0 0
886 1 1.442306067066804 24.842520211966104 8.715550504149844 4.343850119769202 0 0 0
887 1 1.364223455236083 23.356036860609716 11.649563503793864 6.8132419773805255 0 0 0
660 1 1.449822766316172 15.525042748494588 10.300878434313326 10.971851707767465 0 0 0
894 4 1.120954670129026 24.87909635017895 8.403363570753212 7.5641146394808025 0 0 0
895 4 1.260165510944692 25.3731186459368 10.43265243369262 9.890750643740843 0 0 0
896 4 1.114228258391446 23.552959534525883 12.012584594870646 3.8446617132004937 0 0 0
1415 2 0.3858379885640511 15.939329683623757 8.156246713646608 2.6097886661631 0 0 1
908 3 -0.7353867272686035 25.187076243683823 9.054183885298828 9.066168778413727 0 0 0
374 3 -0.7567991064991576 13.593492415117474 11.686586351948188 2.4946646149383076 0 0 0
911 3 -0.901447235431299 23.810560432244415 9.345721772646153 6.784375855425255 0 0 0
880 3 -0.9300481952417168 22.615858540531107 8.1231314705865 4.372219041895486 0 0 0
1636 3 -0.831407955093636 24.686192840244164 8.909767155397265 1.6594858130908563 0 0 1
914 3 -0.822369965037291 24.136210639350026 11.400470480924785 9.502513451757606 0 0 0
915 3 -0.7076814561750437 22.72469599011322 11.412068924034388 2.570260769713488 0 0 0
1269 2 0.357777459358992 16.31834674875856 14.441970761128987 10.242256445909028 0 0 0
917 3 -0.9151580910528913 24.619915033452312 10.907592289756488 4.455770835122323 0 0 0
920 3 -0.8285782330840823 21.596255451828164 13.222864418728776 8.187207173211286 0 0 0
924 1 1.425335807241991 22.04399295986563 14.70130074135458 4.673683914813811 0 0 0
925 1 1.483260338198495 25.672597183116615 14.63312489115283 6.769367844014797 0 0 0
929 1 1.390374068338181 23.473472108727545 14.88561065937886 1.2511654402749997 0 0 0
930 1 1.422773389788978 23.421090606093042 13.38825028850428 9.974594669011706 0 0 0
936 4 1.122843765053164 25.35517686457793 14.584834059804429 3.6678487557925137 0 0 0
937 4 1.066646531971708 22.02953888398393 14.707457977974864 7.721644255778654 0 0 0
1191 2 0.3326361712388065 21.0815750539538 11.257051555911163 10.379105461946665 0 0 0
1573 3 -0.850222852462801 18.252670314253404 12.551061676759286 0.5259159607456648 0 0 1
957 3 -0.8217440810498855 24.24383000173469 13.429640954655442 3.473409648543409 0 0 0
1556 2 0.3906173602920101 25.775957747665814 12.197005142078696 0.9193688147799669 0 0 1
961 3 -0.8858111920954661 23.39883248689558 14.271385073011738 6.960223077853166 0 0 0
967 3 -0.9359404078082181 22.362470845022425 12.404280687587931 4.8710527412853875 0 0 0
968 3 -0.8995232819246839 25.794799081859946 12.44048405327181 6.953621222404735 0 0 0
1400 2 0.347177608001179 18.10000015648492 7.82714650840224 1.6848898027536043 0 0 1
1402 3 -0.825087820484631 15.24352134754958 12.803613858110959 0.750138218560712 0 0 1
1300 3 -0.9260165064443648 23.195296668309062 7.7299641979278455 10.775064946363846 0 0 0
1575 2 0.38832516214005 18.127176710509247 13.372962889291738 0.8871307637012334 0 0 1
376 3 -0.8457051685594035 13.830566174736669 11.667534837066702 9.900861604106366 0 0 0
1594 3 -0.8124591999103626 22.12576997022257 10.248285391363686 0.2750507079886394 0 0 1
955 3 -0.7733854647712675 25.67522246384244 15.198582251000847 2.113930787420791 0 0 0
1328 2 0.3921258356407907 18.496864007430663 14.146440089720496 10.944219850518634 0 0 0
1565 2 0.3378273333553175 20.8248258691612 14.501756783768878 1.4726745058405313 0 0 1
916 3 -0.7597364159166541 26.70510838477297 11.088815083518035 9.28802819671293 0 0 0
641 3 -0.8398369896900698 19.367339699732216 8.129066792322623 7.085512897356814 0 0 0
1447 3 -0.8570821627682507 22.122919166385856 12.899719406702255 0.32915476923199677 0 0 1
1399 3 -0.8544241696677852 17.620881287308997 8.308820179709551 2.328416309077159 0 0 1
684 3 -0.7029041617325125 18.254907623093466 14.76188030363296 2.2699810546604655 0 0 0
605 3 -0.849884069683033 15.842036639771367 10.213371349797312 0.18231563441241413 0 0 0
1574 2 0.343304001567404 19.808364814700955 12.299270972675203 1.431051357124385 0 0 1
1282 3 -0.9040486658613534 25.31852270472335 15.091282568591343 9.402510056717922 0 0 0
357 4 1.194202629097944 13.676313547600513 12.043314710561543 8.38468745746862 0 0 0
912 3 -0.9142693848406739 26.210193938677484 8.154025591529612 6.622522899868636 0 0 0
120 1 1.3595251213943 26.73072856098442 15.377033299952823 10.944886022950818 -1 0 0
1595 2 0.3894704520509978 21.624238319198867 9.118527899135291 1.5245630183989585 0 0 1
960 3 -0.8824606875667185 26.548811042713933 13.936366027217892 4.49249209375944 0 0 0
1189 3 -0.7788030983949726 21.88812465834195 11.230716004903876 11.067692141784692 0 0 0
1190 2 0.3548597736017502 22.500918779144502 10.562910619847882 10.672526086400989 0 0 0
1404 2 0.3137143796463509 15.677920990391225 13.382844083501718 1.3461756103832478 0 0 1
610 3 -0.8955181826699746 15.947005601585925 7.880212297636503 5.2350671845740795 0 0 0
687 3 -0.8712622904076961 17.429700648522292 15.286524466350386 4.48694236231954 0 0 0
1414 3 -0.7482221541263664 13.466931340180704 10.112506757002633 0.5116914222016232 0 0 1
1364 2 0.3435627174147829 15.019216551627874 8.043994992178229 0.5268582045362267 0 0 1
1329 2 0.3832099501423177 19.745447876563833 15.030906294494166 10.540247450060496 0 0 0
65 3 -0.7481561384401773 26.874174873164687 10.79635975191622 0.2845659939788539 -1 0 0
1082 2 0.366768555415236 13.793196612755185 8.220322839114694 10.524851079342387 0 0 0
1327 3 -0.7855261392948015 19.362928893133603 14.533693479062453 11.329783282125886 0 0 0
1302 2 0.3507523274915764 23.740912270019287 8.263314236065 11.325873168469476 0 0 0
1572 2 0.3115325407489073 22.47052369850929 7.966402278961999 0.14673854414059614 0 0 1
66 3 -0.9007253294713685 26.64477147765869 11.254012069633847 16.118611340010844 -1 0 0
1615 3 -0.782891496545461 18.519813347680003 8.975014454522913 22.21419167531014 0 0 0
1155 2 0.3271725680895061 17.984309195155344 14.489427470072341 13.490209213932527 0 0 0
604 3 -0.9149921809449236 14.606824833060703 8.32049216618195 17.720765266780987 0 0 0
661 4 1.134521801973862 13.824893297240923 14.904101970016757 14.935354183072066 0 0 0
613 1 1.443973999405404 16.69012221289708 8.78039287601114 17.55336201706588 0 0 0
614 1 1.402190148473893 18.766334929601044 11.845370641608435 17.82472689101523 0 0 0
615 1 1.385489776338874 15.292200954769068 12.079970420761422 15.614104580903179 0 0 0
621 4 1.085546786985959 16.26781793495231 8.882706548414028 14.420968261223951 0 0 0
622 4 1.035238723632887 18.954017286327357 12.367143454398327 14.912926354248123 0 0 0
623 4 1.146745564679029 15.489350697843452 11.930207497934605 18.677381116890565 0 0 0
628 3 -0.8670778683686846 16.588547355578843 9.519385525273094 12.957690283103357 0 0 0
630 3 -0.891358771627068 15.359000888472519 9.820301853529514 15.403739144047446 0 0 0
631 3 -0.8553330766876526 19.105551479086564 9.464608765263803 17.994543630746044 0 0 0
632 3 -0.9848292551481499 17.624337885098925 8.279097630239262 15.025310619530888 0 0 0
633 3 -0.8023412055449918 18.811991323952547 12.30243669858591 13.285499750429286 0 0 0
634 3 -0.7987467758708406 15.315971440490493 11.396517605022375 20.174705162232748 0 0 0
635 3 -0.8717995833056967 16.427839870080955 10.970630096699566 17.767525488108262 0 0 0
62 3 -0.7455336391580847 26.846609564012127 9.470270971681236 20.651192932321493 -1 0 0
59 4 1.172293384505923 26.758006632335267 8.706377253899369 19.192829915645483 -1 0 0
652 1 1.367167077024787 14.017722023475903 14.840150530961516 18.040618181109323 0 0 0
651 1 1.366222924385235 17.44053023135398 14.936351914236175 16.32994003362016 0 0 0
658 1 1.521750702963404 16.839549661644604 11.7478229021535 21.634278587365984 0 0 0
1318 3 -0.9166562436012229 22.504986844990917 14.680222366315803 11.570691969276236 0 0 0
662 4 1.100743889163938 16.945705682570903 14.575260400236958 19.25685584267844 0 0 0
1596 2 0.3576931392477429 21.583125811838865 10.098790068061982 22.144880082112316 0 0 0
672 3 -0.9316683002430111 16.85955254538696 14.326062667442459 20.911688461671304 0 0 0
673 3 -0.8324226217913673 16.288601750177833 13.365964321503558 18.46103166048737 0 0 0
676 3 -0.8896789316404335 15.114981946562976 14.460992066168528 15.727590637251986 0 0 0
677 3 -0.8169979411256003 18.50573837776442 14.424255493722114 18.708293035835084 0 0 0
682 3 -0.9141402544950669 17.6210418707656 12.761479329236451 15.733242339262151 0 0 0
683 3 -0.8906468719691666 14.069236741569108 12.322183690264579 17.971472138965254 0 0 0
865 1 1.378273178363192 20.082360666936893 8.901128013364607 15.68794298123837 0 0 0
869 4 1.116217891329053 20.05907824051036 8.576357035669341 18.970209351346426 0 0 0
872 3 -0.7288165615633839 20.44650573392217 9.346627525957667 20.49743326138875 0 0 0
874 3 -0.8301612054782449 21.435631269707777 8.355020879524695 18.05792948009993 0 0 0
876 3 -0.8836103985995943 19.676414419092264 11.07738471426517 15.616125694690295 0 0 0
883 1 1.484610683836853 23.47933818369075 9.032752614907787 17.84220104935985 0 0 0
884 1 1.376906844616629 25.355384460698772 12.097251560153254 18.400080067605337 0 0 0
885 1 1.43293282858871 22.041503753657175 12.168311145586056 16.10215215002797 0 0 0
891 4 1.078601405779365 23.371896296887567 8.625471799830926 14.841911809988419 0 0 0
892 4 1.088571367949421 25.65391295694541 12.20894692891654 15.34516031444681 0 0 0
893 4 1.051638477488855 22.19732826972628 12.301028830578769 18.955631312459715 0 0 0
898 3 -0.7400174499298625 23.620583570853324 9.207094129637879 13.293238958476785 0 0 0
900 3 -0.8444288851151653 22.464889987689606 9.545834660248385 15.79215976842817 0 0 0
901 3 -0.8794779189873795 25.79386497347356 9.474014384195577 18.125034894753703 0 0 0
902 3 -0.8847698753314668 24.710158300479815 8.177668015791527 15.699632546654803 0 0 0
903 3 -0.8444276738531526 25.590553445427513 11.688303364284282 20.666402907297254 0 0 0
904 3 -0.776940682224982 25.192987005800276 11.567174701383065 13.939635155273953 0 0 0
905 3 -0.7951425140158459 21.81416087469476 11.51338690721793 20.360720597542695 0 0 0
906 3 -0.9012702273593161 23.081799160955082 11.239783615584154 18.068778984000936 0 0 0
919 3 -0.8711069546640741 20.175084672488428 13.496808078662722 15.177838491862053 0 0 0
1397 2 0.3760086862089415 20.71010729361496 13.720725940325663 21.769050216229232 0 0 0
928 1 1.500492651290773 23.67384268671153 12.253393883753667 21.693890148376482 0 0 0
927 1 1.441280908776081 21.07202878774366 13.3454782455506 12.645130952800569 0 0 0
1470 2 0.3139187062354964 15.736809276628664 8.544960154650685 20.572086739069732 0 0 0
931 4 1.134919347483927 20.701024862788934 14.997145593659134 15.564533466935572 0 0 0
932 4 1.128575774814725 23.95558660623229 14.918465513514167 19.729389289394085 0 0 0
875 3 -0.8173936213120533 18.674926058911996 11.493315124170993 20.37947816794322 0 0 -1
1538 2 0.3860293997037904 23.33569748373109 9.102795613746517 21.174284494858192 0 0 0
943 3 -0.8649779844530323 23.089372711422357 13.598637768115083 19.286970143436342 0 0 0
946 3 -0.8417162646799983 22.126393058630526 14.889552283327646 16.33995373798797 0 0 0
947 3 -0.8691017992416307 25.322700325885275 14.649193198502607 18.840276189020003 0 0 0
953 3 -0.9352478594588181 24.482029965175446 12.734709763826444 16.30764740052804 0 0 0
954 3 -0.927363339871859 20.922083578568497 12.649161768761957 18.064667949335437 0 0 0
1102 3 -0.8516420636343174 22.63144104608511 12.218831907158226 13.888675730831423 0 0 0
1103 2 0.3958365769410756 23.623547377951766 11.940493432048386 13.808897632965547 0 0 0
1104 2 0.411459193971381 24.23461511500328 9.904502490711506 13.169435830682072 0 0 0
1625 2 0.3344973171009887 14.50109849284309 9.750949445836403 20.28074886269036 0 0 0
602 3 -0.7955706176807396 13.790251794893626 9.00614864163024 20.311231385780793 0 0 0
1121 2 0.367147135109149 23.369581335319403 14.883306932402775 12.957480206859048 0 0 0
1616 2 0.4089700320530972 19.358657138100803 12.092968808135243 20.58506367811576 0 0 0
603 3 -0.7654898703761595 15.052424954757816 7.749902171123105 14.230972444190181 0 0 0
1301 2 0.3730666025978553 25.889974451189453 9.107911632262566 11.498584644087579 0 0 0
1398 2 0.3686398197135722 19.419758248811974 14.392508992022066 21.393350714907704 0 0 0
1457 2 0.3375706695088487 17.43193687980315 14.94157214055701 21.382938099603095 0 0 0
922 1 1.407354913885574 20.691813075482457 15.045351433862354 18.653928427857203 0 0 0
1159 3 -0.8590441739630472 20.86698747740454 9.231931449499456 13.06382730503358 0 0 0
1136 2 0.3569224053445708 24.854526503168728 13.923653432187233 12.584958000469323 0 0 0
1161 2 0.3391110876540787 20.359349343965878 9.937046707592756 12.441485797872163 0 0 0
1120 3 -0.8229857206718885 23.929675754363696 14.7505711227532 13.790491559368755 0 0 0
1571 2 0.3482943204849072 24.867058926501045 9.394245536358984 20.840206951033252 0 0 0
707 1 1.555924985207497 14.95546627848198 15.010483552260022 21.885026412000734 0 0 0
1449 2 0.4042500602048527 21.540015225836235 10.562416683224052 20.303157844858433 0 0 0
1193 2 0.3727151899481859 18.632946254552333 11.384119336598712 12.96427724546202 0 0 0
619 1 1.427867725018896 18.266015961169902 8.288008167629108 12.23748238964822 0 0 0
1219 3 -0.8449615516702301 16.040452615974242 12.203913168478426 13.01391619786958 0 0 0
1220 2 0.3757840236571914 16.687320740214968 12.857178522808486 12.66984370108507 0 0 0
1221 2 0.3006765912330465 16.582501275796435 11.320285309727973 13.121251308171411 0 0 0
1448 2 0.4020390109039462 19.620684950433365 9.745154321113352 20.891670682351844 0 0 0
1160 2 0.3798662703589246 21.733471147460424 9.647235039476072 13.154949705494476 0 0 0
1537 3 -0.7997894059694566 23.913305398926443 9.691395649211225 20.676092132394302 0 0 0
642 3 -0.8376963369006188 18.806743293524278 10.237454857742872 11.692847290324732 0 0 0
942 3 -0.7968958295314582 24.333873140857968 14.909505092862043 21.329139901072253 0 0 0
1396 3 -0.7735029574598324 20.08546964880047 13.80054068304044 21.0213996972901 0 0 0
1135 3 -0.9011839594423391 25.28503322966583 13.517930528588677 11.859992230028562 0 0 0
1468 3 -0.7816125568388477 16.55039376560206 8.174965868027233 20.21412513663511 0 0 0
1296 2 0.4007874982868961 13.971835214691449 15.344147648421552 12.840487457420267 0 0 0
1617 2 0.3688837808049974 17.84037629512916 8.700017893460972 21.533305448322785 0 0 0
1539 2 0.3633066031845162 18.9903117999854 8.120490833619856 22.44714219004907 0 0 0
60 4 1.267684969480943 26.903017425713504 10.927756916906658 21.317396789913005 -1 0 0
1403 2 0.373525782410847 15.021799424370228 9.845294498750667 22.486127413247672 0 0 0
1122 2 0.29406860043196 23.86608014195199 13.822530998919207 14.02614384493763 0 0 0
913 3 -0.7948711794434113 25.589526987104456 10.01844372815622 11.439436201025353 0 0 0
109 3 -0.8181498549313753 26.44003831447189 13.575293218117823 14.966804214950068 -1 0 0
117 1 1.496272234952544 26.87598393555171 12.274394319997336 12.64757949705546 -1 0 0
1483 3 -0.8861409326845834 13.69081681609171 14.124027224454945 20.557978931570105 0 0 0
1153 3 -0.8323664384517688 17.353994015738966 15.24223609155288 13.604220896823392 0 0 0
1294 3 -0.8326781412835109 13.902161804065015 14.505750251421214 11.609949667087497 0 0 0
1154 2 0.3466443859946037 16.868217266264324 15.153610806777158 12.774144010863049 0 0 0
921 1 1.453911615683617 24.331386807690052 15.017838858673162 16.372226246456286 0 0 0
1295 2 0.3383532608688818 14.836065157299968 14.704550180639762 11.44132012450244 0 0 0
656 1 1.346797363948154 17.269545163482714 17.785568864128404 4.3294193564846255 0 0 0
667 4 1.114739119625092 17.796489438641018 15.898670269091749 1.1962583969672331 0 0 0
668 4 1.204875607969586 15.641716534156666 17.125361715436373 9.735789343248527 0 0 0
771 1 1.301751683955958 19.857944050958473 23.052273459909145 1.2494942559654054 0 0 0
670 4 1.061321623587068 17.4610774057252 18.158086905799692 7.381389919100965 0 0 0
1583 2 0.3494683674872392 21.498558363608968 20.197680932195276 0.6167285991622095 0 0 1
678 3 -0.8371715642786062 16.30118261604344 15.654955838717767 0.7028078109357727 0 0 0
978 1 1.455940463976283 24.604589741965945 19.293357071352762 0.30697376751937905 0 0 0
753 3 -0.7867256701100266 18.547102689282415 22.263381375296554 11.231795847377908 0 0 0
692 3 -0.8472537149380992 17.6689397221761 17.44904633547727 1.7697475701504408 0 0 0
693 3 -0.8469641570784719 14.448540513337377 18.08504457137592 9.271072271170016 0 0 0
694 3 -0.7924036224420066 16.974248689608714 17.77735235156089 8.949991283832823 0 0 0
695 3 -0.8234097616114575 14.81913507551871 16.995554083774756 4.266124961157613 0 0 0
696 3 -0.8711497424616325 18.30732766217509 17.072532327954963 6.51982440950369 0 0 0
700 1 1.401421664410258 20.784026480966805 17.93848148050352 6.49230409909991 0 0 0
702 3 -0.8059648398396038 20.289542269380387 17.550208462900365 1.8985283729392903 0 0 0
705 1 1.457129703640452 16.27556377997059 21.075969002109034 6.595619507217999 0 0 0
1428 2 0.3455408744746475 16.487394024617466 20.7496134351968 0.48393265922200446 0 0 1
711 4 1.166532794497379 15.90153443570152 20.738696692137868 3.552942365949515 0 0 0
1405 3 -0.732859635524842 21.76144867406597 21.80013678201693 0.7319417850558442 0 0 1
1026 3 -0.8973955213649965 26.59585652451234 18.635497267575623 4.235566184270687 0 0 0
723 3 -0.7532799666889285 16.13864891076551 21.56168021420069 2.186476643979187 0 0 0
724 3 -0.7429951093955292 15.114365581730356 19.357473806600083 3.2762413584148673 0 0 0
725 3 -0.8261586560139255 18.523680845511027 19.39194700580744 7.606290873345559 0 0 0
726 3 -0.938338254041007 15.033871992659172 21.70066722789454 4.521011575322134 0 0 0
727 3 -0.8507062198153915 17.34973288625676 20.427038991361382 4.147347823147496 0 0 0
731 3 -0.9140249694589612 16.24207195479846 18.645428173207954 6.454441871196183 0 0 0
734 1 1.416291281882893 19.629097654634197 20.938876569316644 4.334915025568105 0 0 0
737 1 1.428466895044638 17.844614037020133 19.89698007903476 10.105805621701315 0 0 0
741 4 1.041161332139566 19.40300062316062 20.724832884348118 7.2885399283849 0 0 0
750 3 -0.7742521148543688 19.59282656209136 21.36766240320255 8.794491304917106 0 0 0
751 3 -0.9603830193360399 18.402515620284536 21.77554918383467 6.487001649230221 0 0 0
752 3 -0.8931825435734587 20.847835453431525 20.455171391329547 6.589920193777564 0 0 0
1250 2 0.3499732532415991 22.325053855885468 17.891215353707665 9.300533589377691 0 0 0
756 3 -0.9269764191552987 19.917982139167968 18.660486102080863 4.442074013598277 0 0 0
926 1 1.454654861595515 24.145456644340065 17.753880874028535 4.602018785520146 0 0 0
938 4 1.14532941921857 26.031162492753378 16.477857430544244 1.147726768921527 0 0 0
939 4 1.105736925185389 20.935673763978258 18.00208127490225 3.3463226852699726 0 0 0
940 4 1.036216631074522 24.467435569852245 17.962854731403024 7.443368546183449 0 0 0
1283 2 0.3280968186730885 24.75871841138682 15.92380921487432 9.265675621248006 0 0 0
1455 2 0.2964763546353145 13.81608520034115 21.246359804297292 2.3036649985788142 0 0 1
432 3 -0.7218423425206233 14.35753591229878 18.006676842064095 1.3777322281955697 0 0 0
1271 2 0.3522480573700406 18.3380308910944 16.465653802763246 9.147347489315282 0 0 0
963 3 -0.8359013444761638 24.616700299147293 17.295931767546424 1.086483384207371 0 0 0
964 3 -0.7669175441107029 24.241510627264695 17.543812323346604 8.998346116790763 0 0 0
965 3 -0.8382853491889273 21.79793876377002 16.8175966364712 4.141619290826972 0 0 0
966 3 -0.8780370318790061 25.54440439868344 16.96547358109202 6.729936392637035 0 0 0
1263 2 0.3364227820852069 15.220080787050223 21.13209508882037 9.089042778038722 0 0 0
1558 3 -0.9921484184956909 26.47157779873419 20.444192068586155 1.2753390081260811 -1 0 1
975 1 1.448422023897879 22.997097953685536 20.740785793260773 6.343147630945391 0 0 0
1231 3 -0.8906331159281408 23.48316270706702 20.003164875244345 11.10433324334439 0 0 0
981 4 1.115895550537837 22.90025171743881 20.379410044827935 3.304973307905884 0 0 0
1284 2 0.339152737574675 22.955002922845797 16.170382445969263 9.236501947966325 0 0 0
1584 2 0.368784298521434 20.87372780274857 18.691068650618917 0.8642998201213122 0 0 1
993 3 -0.7488216436177422 23.634714712775608 20.866346635840536 1.878716931352221 0 0 0
994 3 -0.780688581909198 22.222586594944445 18.937434284637753 3.0321051056582866 0 0 0
995 3 -0.8387466336813677 25.098564679852906 19.493006164200953 7.598949336974661 0 0 0
996 3 -0.8530967350637678 21.810204821821298 21.413642904444984 3.9535300656935424 0 0 0
997 3 -0.9642468184670075 24.07569031307752 20.050870576740397 4.362018040244758 0 0 0
1001 3 -0.9192958242904223 23.124362209769547 18.17372098372848 6.495763172538246 0 0 0
1004 1 1.413783737979571 26.205552724942354 20.857140520258334 4.205799820790107 0 0 0
1007 1 1.40570138153991 25.730012410554362 18.920370967232333 10.0590508420452 0 0 0
1010 4 1.131479166794964 26.0946103196346 20.747278674562864 7.429896846629314 0 0 0
1386 2 0.3473036148912334 19.227796493483577 17.52931221332143 1.8224148683948935 0 0 1
1019 3 -0.7678418998610717 26.189976931891326 21.44207183409131 8.903757832852396 0 0 0
1020 3 -0.8579843818831454 25.20506915823328 21.695535400425303 6.4385308573421005 0 0 0
1411 3 -0.9197849743422454 18.846302200193755 20.505072822154347 1.7876096813949265 0 0 1
982 4 1.084914082360083 23.240774413217164 22.40918557754861 0.8657954304590221 0 0 0
1272 2 0.3065459094291202 19.898400142942602 16.596467088387687 9.129683151312255 0 0 0
1306 3 -0.838730281156328 19.25057653118165 18.371796228463637 10.876953459274262 0 0 0
1413 2 0.3067186513855367 17.830288688880405 20.4947805368938 2.0474849796485475 0 0 1
430 1 1.41797331344211 14.045976041098376 17.879641604982915 6.569738778405478 0 0 0
1022 3 -0.7295352388490162 26.26848431376089 23.06211642698365 11.125242221341173 0 0 0
1249 3 -0.7687704453423226 21.417457889101012 18.35185601341128 9.072382244683574 0 0 0
1000 3 -0.8624113417551951 22.661717137988198 23.11759942835295 6.157051328583039 0 0 0
1560 2 0.2084148133588733 26.70704668888321 20.297806898644456 2.194707715090029 -1 0 1
1251 2 0.3641807838617019 20.922206841038797 18.278197132681516 9.889901267217057 0 0 0
1344 2 0.3715223734368727 20.3241939752935 22.01514144550893 8.730008378342974 0 0 0
1412 2 0.2809234729053635 19.048299520586614 19.58843016516363 1.8772997768988149 0 0 1
1261 3 -0.9845891895859784 16.16820138682928 21.13304147826223 8.949970399060927 0 0 0
1011 4 1.239007152340335 26.20042114621283 22.998501383333462 9.475645471319103 0 0 0
1270 3 -0.8196937169593278 19.157576397824645 15.979227731972932 9.152846058132582 0 0 0
1203 2 0.3323309187737223 14.164166541743846 22.61187714817427 8.791050728056804 0 0 0
1566 2 0.3876420540347577 20.91134256952207 16.00984965823092 1.9338593179191728 0 0 1
669 4 1.102082782866243 14.020308334276036 18.15401665687529 3.409694932016846 0 0 0
708 1 1.520119601225474 16.293261234354432 18.134411758154357 0.08093818071022639 0 0 0
959 3 -0.9132586094196603 20.977023881872007 15.439734535895704 6.785361988369643 0 0 0
1041 1 1.342733361149097 26.43136889129366 22.52591027332473 0.5799899340226337 0 0 0
1308 2 0.3045302395397475 19.134918778802817 17.743417979119982 10.207398734052896 0 0 0
1172 2 0.3106104757365231 19.383298563750873 22.661610419255542 10.8221566810925 0 0 0
482 3 -0.8564619783631785 13.706530785259526 20.433658102586723 6.846382329653396 0 0 0
1232 2 0.34997497585021 22.669894845648006 19.573451773787863 11.091622194800694 0 0 0
685 3 -0.760369949223921 15.62641537226459 15.581798004848677 9.120320958307572 0 0 0
956 3 -0.7758827342425869 22.28461754134163 15.479013476740434 9.223992577911641 0 0 0
958 3 -0.9070799174160751 24.537843859804493 15.691177092892342 4.525737204353758 0 0 0
1233 2 0.3446008460516162 23.23924168645424 20.924079084708406 11.119283061209192 0 0 0
1582 3 -0.8215044067871691 21.02565029717392 19.375310734657607 0.10714947158794648 0 0 1
1632 2 0.3414095072008357 13.633116995338773 17.394209917593468 1.2651879510819892 0 0 1
688 3 -0.9475020168043066 14.443330452483657 15.628860684826444 6.726469063286417 0 0 0
1385 2 0.3378922242934529 19.806532777031663 15.873767442770419 0.2300524792335438 0 0 1
1025 3 -0.9157192238879452 25.745247814911952 23.06733047903884 4.091742834313981 0 0 0
691 3 -0.8149779736542396 16.007256675356636 17.211368876974152 11.336982739151976 0 0 0
653 1 1.397675185076174 15.803634280254176 18.081470929546164 18.624939394464477 0 0 0
663 4 1.083013104150397 16.008034851903158 18.450085521910506 15.622345411497182 0 0 0
1253 2 0.3525022151348783 13.952311265358745 22.115564701275666 11.933730812592195 0 0 0
1254 2 0.36540982691587 17.410728834375245 20.72310943896762 12.645018614687924 0 0 0
948 3 -0.7382902910063981 26.50323328272213 16.064505654940472 22.360912582497647 0 0 -1
679 3 -0.7858845794710323 15.577626082863922 17.852786398822737 14.161913694023182 0 0 0
680 3 -0.8752453872192349 16.84190691818529 17.32199819694138 16.38418999344902 0 0 0
1241 2 0.3176951349809228 13.756707845816898 18.87410943652166 12.869951699163947 0 0 0
699 1 1.387254945817758 19.199189308924133 18.180023325043987 16.458878625459732 0 0 0
701 3 -0.8446336528699077 18.431745230252055 17.983711896150815 21.06264544991201 0 0 0
703 1 1.411962063269889 14.554110465545534 21.393798383580172 16.59929055794405 0 0 0
1259 2 0.3750026989603676 15.252994470316121 21.422547492627142 12.12070183484215 0 0 0
709 4 1.087499016453599 14.343783958151008 21.085626477740256 19.70784919616858 0 0 0
714 3 -0.900636703192066 14.303512359534285 21.243131361322693 21.361194583345693 0 0 0
715 3 -0.8107091319065802 17.223555661854732 19.47899022677682 15.123660759857398 0 0 0
941 3 -0.7532150764117669 20.9224361632244 15.746316331346403 14.099186807004092 0 0 0
134 3 -0.9103897113825763 26.345823853180274 15.907250257338491 16.16881923952269 -1 0 0
718 3 -0.8716788997049018 15.764159150360358 20.831159016221378 18.92645891576648 0 0 0
722 3 -0.8798836205759968 14.756611620276551 19.129903061329337 16.36870868000971 0 0 0
732 1 1.418708067910253 17.85391216276431 21.30069103799055 18.559090881664844 0 0 0
736 1 1.408722651077236 17.746769885734057 17.90267323607721 13.049464143090328 0 0 0
738 4 1.116841560917585 17.795398695396674 20.987846171851107 15.314575694529754 0 0 0
1515 2 0.3327690202983256 21.688394414866274 16.99281339286979 22.684848871916913 0 0 0
743 3 -0.6743344361682628 18.127832287231236 21.734135798464553 13.859144396642307 0 0 0
744 3 -0.8681382791203259 16.82121089573277 21.97745629423953 16.23127366401848 0 0 0
745 3 -0.8472437449792696 19.167708865056074 20.5787765593404 16.173496532960904 0 0 0
749 3 -0.8924746102547867 17.955142293647437 18.834926291779922 18.60642504749098 0 0 0
923 1 1.429719013006086 22.747926193902362 18.366610821427876 18.88017664501104 0 0 0
933 4 1.233807737330993 21.18360960746947 17.219211449990134 13.498440904567294 0 0 0
934 4 1.064109570861779 22.863670058145182 18.433652596724794 15.861640112844519 0 0 0
935 4 1.089178626002634 19.128819439816958 18.466210646829815 19.670903284624714 0 0 0
944 3 -0.8940571451324365 19.7064597701365 15.834737760794651 16.46381105303322 0 0 0
1407 2 0.3619223066935487 23.927435527244256 22.771607946894186 21.466148179630316 0 0 0
949 3 -0.8156558603367458 19.77426488065029 17.91879694333746 13.803761084663687 0 0 0
950 3 -0.7435321209488036 22.486582554284066 17.963220822370452 14.258404406130952 0 0 0
951 3 -0.8714266763483464 23.78446576665914 17.394843458944127 16.66034469959701 0 0 0
952 3 -0.7698922414263402 20.132380269480187 17.38194678692957 18.943537255105518 0 0 0
969 1 1.345502687736627 25.85374405716252 18.437192390565034 16.771144499756474 0 0 0
1258 3 -0.798613381323413 14.902423551015007 22.29453700291465 11.762789758866985 0 0 0
973 1 1.406323996347941 21.319260878858326 21.36943446068961 16.532115236200013 0 0 0
977 1 1.338065807015098 18.95046107615964 20.541216948232833 21.868515624063228 0 0 0
979 4 1.015444699342873 20.84258186893098 21.196526141946535 19.48880422759939 0 0 0
984 3 -0.7693241218244411 21.158230693624347 21.978724939717537 20.90994267914793 0 0 0
985 3 -0.8717895251616137 23.494054713330442 19.887392304374185 15.748321727648563 0 0 0
986 3 -0.9093789044438423 19.741213099122966 19.974674312399827 19.811661648407934 0 0 0
987 3 -0.8752998705154892 19.987020236019283 22.19960057228398 18.491055932238694 0 0 0
988 3 -0.8574761513478436 22.205447672300885 20.630854069332077 18.725742101635788 0 0 0
992 3 -0.8182917433240496 21.52848737690143 18.64688491157007 16.795664892672704 0 0 0
1002 1 1.413016668485413 24.730855276795264 21.399062449813663 18.612193591701555 0 0 0
1006 1 1.407662053985009 24.708257121035828 19.275432282148472 13.267458295706845 0 0 0
1008 4 1.097608562225501 24.46658404750187 21.152714338624634 15.674646138804892 0 0 0
1013 3 -0.7452724571785393 24.730234328965626 21.33454556335825 14.10051353778544 0 0 0
1014 3 -0.8426368282848605 23.554912370556693 22.218670734689884 16.516407737649224 0 0 0
1015 3 -0.9316163229163332 25.800999351740323 20.81220916681842 16.505617243707533 0 0 0
1018 3 -0.9008189269812601 25.25316366542853 19.256591375595477 19.158970612765764 0 0 0
717 3 -0.8207701420664879 13.700861499379256 22.440498705384112 19.012798534063904 0 0 0
1242 2 0.3583462932692102 14.797020283726894 19.291662513723402 11.837048656613687 0 0 0
945 3 -0.8121271563481894 23.08881156361531 16.183025096213495 19.289077414282325 0 0 0
1577 2 0.3429421216359694 26.531972844144402 16.92499108543805 21.78661681397618 0 0 0
971 3 -0.8401354558187486 26.148929111137576 18.454069828724023 21.503242966654803 0 0 0
1314 2 0.3644819706085602 26.42582659588588 21.140925578057416 11.4445385552507 -1 0 0
671 3 -0.7749562819673624 13.937182062906343 15.925858010538137 13.67498335098378 0 0 0
1319 2 0.3094373675729281 24.7735426880044 16.54998268662447 12.710572952029747 0 0 0
1307 2 0.367880185354744 15.260384683973873 16.90448462035497 14.278830074587889 0 0 0
989 3 -0.8553470110127814 24.118026451069248 22.136321969291107 22.19925224032322 0 0 -1
1252 3 -0.8025380320512819 16.7749395056675 20.154386190881514 12.131980951608611 0 0 0
1456 3 -0.9369113471865427 15.180677399055467 17.488951228392096 21.167763953370944 0 0 0
1238 2 0.3416329909022729 25.918249726940548 17.01995295236358 14.324535926856308 0 0 0
675 3 -0.884515034031224 16.138216609092755 15.827724262961896 18.75423627963761 0 0 0
1240 3 -0.8282578894356823 13.872721265982687 19.40656358722229 12.046917503156333 0 0 0
1237 3 -0.905488682944934 26.002570203746142 17.96191366254799 14.378648786579436 0 0 0
962 3 -0.7621057270329061 21.383007273156224 17.21209005932213 11.882044538362868 0 0 0
1392 2 0.3917713763016427 15.105991315086186 20.77429784193516 21.680909558156735 0 0 0
1458 2 0.3711852118688659 14.226561480009286 17.555580297158002 21.306169225824355 0 0 0
1198 3 -0.8995935981984183 24.621787858935615 17.10260411690621 11.994673106374503 0 0 0
1580 2 0.3446019558867586 21.679944015371202 21.43257990177923 21.640823567535442 0 0 0
1427 2 0.3580372951404769 18.959073027784864 17.17318364244076 21.45298973493984 0 0 0
1346 2 0.3040903607926344 15.268403063011286 17.438487298838865 11.983845028122488 0 0 0
1578 2 0.3459998430335404 22.04728999983572 18.74425489494426 21.49008155082555 0 0 0
1576 3 -0.779861072260254 22.963600047982055 18.865877020801733 21.143196087390052 0 0 0
1200 2 0.3974156226743753 20.510060610876216 17.46308981259466 11.532036995284704 0 0 0
1118 2 0.3073530619316849 23.759999809841812 22.6679047675903 11.408315201394448 0 0 0
125 4 1.122831450152256 26.508650412128844 18.62214206650421 19.941303574673917 -1 0 0
1514 2 0.3251110191908033 22.26553905173223 16.48005631790292 21.441367231175796 0 0 0
1513 3 -0.7741175011725633 21.79901938455569 16.193564948939528 22.243794962523033 0 0 0
1520 2 0.3151525519974687 17.387860357477475 22.262870943309373 22.11648053620592 0 0 0
1519 3 -0.931197255345025 18.27309740342492 22.520923195192943 21.7506940647246 0 0 0
1384 3 -0.7825781460168345 18.87509205809478 15.805494413828699 22.534412620183247 0 0 0
1337 2 0.4098369880115879 23.943541406258863 22.924956331660418 14.028981266755789 0 0 0
1312 3 -0.9466376797968099 26.682304071391055 20.22162378855147 11.598350305152952 -1 0 0
1117 3 -0.7583250137767684 22.83369103768985 23.033754514936245 11.350799681622792 0 0 0
1426 3 -0.9213813915004542 16.54155757587576 20.30379363790228 22.364963957514377 0 0 0
1437 2 0.3514943619079194 15.353833320154004 22.650573210757003 21.90894319880553 0 0 0
681 3 -0.8895039496570981 13.468942184641513 17.398373360725834 18.406825845560725 0 0 0
719 3 -0.8189180485611722 15.928079585513157 23.080688556071053 22.63537047440183 0 0 -1
1557 2 0.3701043581148791 25.149724233486943 15.498874676220224 21.64042273422914 0 0 0
1199 2 0.332309952696724 23.725240886053275 16.747700936786394 11.680703452839694 0 0 0
1320 2 0.4052385248393001 22.027362194398385 15.47432986045357 11.427994640758843 0 0 0
706 1 1.380077294529551 14.801840631704952 23.998989453634486 4.530094736483139 0 0 0
713 4 0.9938306260161047 15.039297433846489 24.276593164409284 7.626650033650185 0 0 0
728 3 -0.8433493821602095 14.798802363499714 23.966989333315766 2.0647711801144837 0 0 0
1482 2 0.3299345445769242 22.373752878634036 29.210739595838675 1.9513432906365378 0 0 1
540 3 -0.9144537561648995 13.833031894294496 24.900910924414795 6.792871667606178 0 0 0
735 1 1.407283741100558 18.364431903424272 23.955941863486075 6.550410375155021 0 0 0
742 4 1.049093681147175 18.28120929048766 24.369347161891096 3.392960928804028 0 0 0
754 3 -0.8038367906551026 17.550980519076294 23.76324362349288 1.90546720056729 0 0 0
1588 3 -0.7488015674305124 20.04164402046847 27.8000896669427 1.940489945258715 0 0 1
759 3 -0.7529068949395201 16.16449824365815 25.32424518849422 8.339610717916152 0 0 0
760 3 -0.8772908647306193 14.625885508106245 26.574552480330397 4.563246499540417 0 0 0
765 1 1.422089548253086 16.781612394104428 27.196622415153115 4.767128987520215 0 0 0
766 1 1.464890725228683 20.405935948943817 27.021593927289512 6.490205208038742 0 0 0
767 1 1.354882797200653 15.449464832034119 30.050815457658985 7.161174695748486 0 0 0
768 1 1.415241217266695 18.725914191681156 30.297734045362983 4.642408034871915 0 0 0
1353 2 0.3255531634718323 26.216908066869898 27.678191191388876 9.15798077265765 -1 0 0
1343 2 0.3467513203478473 19.279128226299203 25.376679247263876 8.91491283575708 0 0 0
778 4 1.113100120434443 19.98682151250468 27.00774224728025 3.3699496584984203 0 0 0
779 4 1.13298573834731 16.914818554852893 26.691083276469218 7.810203063194592 0 0 0
780 4 1.246844190566636 17.63775192853599 28.843804845276814 9.998232569718445 0 0 0
1277 2 0.3437525938220021 20.004323176417568 23.962229878453893 8.99806775179238 0 0 0
782 4 1.074756858504146 19.19211514928223 30.25664696324936 7.713626152660781 0 0 0
1132 3 -0.7866983533172319 13.833835352158204 26.02359319578809 10.986584485683853 0 0 0
1207 3 -0.811589500233687 20.235895650117293 26.782415482484833 9.143232319034047 0 0 0
798 3 -0.7029795826088684 17.407061307792684 27.416690378246646 9.250955550131465 0 0 0
799 3 -0.7714255322466096 19.208856493072137 25.602104214587836 2.98842165964614 0 0 0
800 3 -0.8655868481482327 19.127438090561597 27.964316140861214 4.434169260076214 0 0 0
801 3 -0.8864026321860973 15.814382359044284 27.66688399517419 7.050834992805827 0 0 0
802 3 -0.9017816167984124 18.130072212242254 26.31164302043481 6.815801917743308 0 0 0
1378 3 -0.8112659414536948 23.41960555832858 27.729910184643046 1.4671002082616595 0 0 1
804 3 -0.8641337036023866 16.333581154076917 29.70905305547603 9.715243489519771 0 0 0
729 3 -0.7681778205399148 14.387472448827776 23.540590225135965 8.975319186615907 0 0 0
806 3 -0.7562834685763788 18.931812615464427 29.588499715237795 9.260146561449174 0 0 0
807 3 -0.8996597572858003 16.45478493345492 29.46204181141177 4.841886958722974 0 0 0
808 3 -0.8471175366708401 20.005610428826337 29.281169287277418 6.720772725982621 0 0 0
809 3 -0.8759190569843104 17.05448083961399 24.843370216860595 4.350336309771252 0 0 0
810 3 -0.9494954166890278 20.470778888316264 24.592323209061895 6.255914018282527 0 0 0
976 1 1.384039715779242 21.58353941317857 24.076370286350407 4.164140523959132 0 0 0
983 4 1.022572191004062 21.70887582496093 24.087578824192526 7.089133734240846 0 0 0
313 1 1.470539912307579 14.872365643016167 30.712884273448427 10.850147234858 0 -1 0
805 3 -0.7600385107578449 14.99188667202991 29.94680811933519 2.6260711208071577 0 0 0
1379 2 0.4113364899478078 24.13772783387946 27.39169001923362 0.8678173310704634 0 0 1
1005 1 1.427021522929693 24.961160549026072 23.99210517507744 6.248261564410314 0 0 0
1012 4 1.137480099912807 25.09461783742814 24.229813963581687 3.178014740488968 0 0 0
1023 3 -0.8534991618252568 24.86697734733856 23.692607939530085 8.992228450895976 0 0 0
1562 2 0.3906803350754347 14.070712567481754 28.41172705724882 2.2099624684760593 0 0 1
998 3 -0.753684664501091 22.333665496142174 23.983944530799505 1.5672130909521564 0 0 0
1029 3 -0.8679782159217795 22.55267424736922 25.438734748512566 7.368937366947465 0 0 0
1030 3 -0.9041312798080896 21.368901429428817 26.526853356774986 4.02273814756134 0 0 0
1035 1 1.425702974894197 23.478728769592678 27.25660242225779 4.2043808287145366 0 0 0
1607 2 0.3643060186331474 24.684047813948347 25.143897541189137 0.862298715869743 0 0 1
1037 1 1.410580312185415 22.266093531124014 30.3171257971073 6.614468633051466 0 0 0
1038 1 1.391840000811915 25.60860006781631 30.18069456929437 4.2365673307509395 0 0 0
1499 2 0.3705701425793556 19.559594367776867 25.77216468413022 1.139080993429482 0 0 1
1042 1 1.500170594227853 23.07599179490017 24.640642786759393 9.615363509403679 0 0 0
1541 2 0.3204227296760046 24.20590496411165 29.61283278297149 0.8640723921531779 -1 0 1
1049 4 1.090348413977241 23.431368346199136 26.866409468092293 7.320181555513639 0 0 0
1050 4 1.238127515405908 23.89293219235125 28.985261524357004 9.443319642513694 0 0 0
1276 3 -0.8858361710684423 21.127656260827344 25.434834911389054 11.130107910645263 0 0 0
546 1 1.457792638410333 16.73479992313502 30.55619595512678 1.382040610100592 0 -1 0
1497 2 0.391759718111964 17.273602234301492 27.743364668908992 0.4764353892511942 0 0 1
1561 3 -0.778922851020255 17.462444623074003 28.521166826209765 1.8747146133960522 0 0 1
1068 3 -0.7142835830356496 23.666043615918667 27.392956931992053 8.848010156111757 0 0 0
1069 3 -0.8169897180648634 26.283474540818133 25.309158080701906 3.1060828069945443 0 0 0
1070 3 -0.8667773971937704 25.865916320177153 27.875053564138273 3.791597872381138 0 0 0
1071 3 -0.8941065771429907 22.469494045944128 27.946454313262713 6.539185634296491 0 0 0
1072 3 -0.9260391547289691 24.705530352324224 26.53956035851336 6.475896873893367 0 0 0
1278 2 0.3343110592111693 20.450272922286853 24.980897212252472 10.74827117828649 0 0 0
1074 3 -0.8138584195043007 22.589650948952556 29.849542505389106 9.297519219085437 0 0 0
1406 2 0.3530520580205344 22.57484286040156 24.659113187713213 0.9368419389056286 0 0 1
1076 3 -0.8260480125763081 25.12611749691922 29.582531679951202 8.522083430662928 0 0 0
1077 3 -0.9002636327720881 23.377035191888083 29.52303687552491 4.254587781049712 0 0 0
1078 3 -0.9359525803021205 26.52350874164755 29.51991885708861 6.124377950442762 0 0 0
1079 3 -0.8651125704533688 23.83327113993648 24.82844565735023 4.012366326139887 0 0 0
1059 3 -0.7493336528328893 25.060381258508702 29.951426531928725 0.5974610835824934 0 0 0
1589 2 0.3215879043389845 20.686271479519412 28.54586555664405 1.917734782701108 0 0 1
1173 2 0.3577367044458503 18.564103209043616 24.885152039361422 10.975160757002545 0 0 0
1590 2 0.3675984656313175 19.923367267819284 30.509016325168577 1.4926643746510257 0 0 1
1563 2 0.3539359795706992 18.463299552509746 28.51406299992765 1.9340420434560819 0 0 1
1048 4 1.224654728462088 26.911200262722073 26.799275669443855 3.1202564649710314 0 0 0
1051 4 1.147588384758573 22.339924464833775 30.592776911188817 3.525140654104978 0 0 0
1073 3 -0.7531180269045976 24.41512310315421 28.60576213339153 10.91171994575267 0 0 0
1441 3 -0.7551149704811289 24.75755441279025 25.897882046847684 0.17825240426829578 0 0 1
1380 2 0.3501563919280812 22.6230839813429 27.3930157071154 1.0311824408475438 0 0 1
772 1 1.320190841872612 16.802377049028156 23.13419407214272 9.797301562387869 0 0 0
1052 4 1.054583587777695 25.654561011083874 30.37748238401632 7.20267848987786 0 0 0
1133 2 0.2811340410145455 14.122986359380512 25.898491006870046 10.053375701380308 0 0 0
755 3 -0.9282349375932166 19.305453668681526 23.238193394825668 3.8985209595738133 0 0 0
1498 3 -0.794338438839553 19.714615623815398 25.169769093392528 0.3457184317820781 0 0 1
1208 2 0.3874084977916128 20.5385373101367 26.49925161906361 10.083261385747367 0 0 0
781 4 1.11060375727567 15.490191833528613 30.469108481629007 4.047480206467533 0 0 0
1075 3 -0.7910831992306172 21.967800176162196 30.05480107621672 2.031920860379055 0 0 0
1342 3 -0.8650123496600965 19.08320728737072 24.437303268813668 9.148103035919846 0 0 0
1209 2 0.3487240440919528 19.42535052660312 27.298485049357335 9.336340047412637 0 0 0
999 3 -0.7808465306931589 21.465679015744666 23.461298589205487 8.613264477751047 0 0 0
496 1 1.359822195681493 13.484627034472956 27.077675536292382 6.85085444946559 0 0 0
528 3 -0.7672151580802349 13.714657813188463 27.517518339687307 2.1168708798540767 0 0 0
1024 3 -0.78698720175614 24.794392484519545 23.61715963817571 1.6943459600118145 0 0 0
846 3 -0.8974752336336566 21.117868793772175 30.844879832290122 4.487807970864303 0 -1 0
1036 1 1.480879533932634 26.810515212321057 26.997866664275985 6.215598818401062 0 0 0
730 3 -0.9249900179936608 16.08127098152747 23.311133400592933 6.868840585279474 0 0 0
1107 2 0.3486577283180958 13.781355940244913 27.840672033265736 11.198887148758383 0 0 0
712 4 1.169792647625707 16.08510654528131 23.133861953050058 1.527536323551827 0 0 0
1060 3 -0.8824413280234708 24.246866117430105 30.472241888250803 20.91114218506946 0 0 0
1062 3 -0.7289431351847506 19.762107610526087 30.691308359415846 19.85977412800584 0 0 0
764 1 1.38857491437208 13.940215628168817 30.599449873209686 15.259183879860936 0 0 0
1101 2 0.330092137479523 24.513823962724512 27.33687892954535 13.349845263838175 0 0 0
733 1 1.379546392122353 16.602290065748075 24.329451384411538 15.993501251668846 0 0 0
740 4 1.067889897346883 16.57585321833419 24.855222818845608 19.085269027691083 0 0 0
1033 1 1.350963148838936 24.081478038627623 30.580454129753974 18.1486271396706 0 0 0
747 3 -0.7475091666424546 15.900913845868809 24.74994500244656 20.55101127081568 0 0 0
1222 3 -0.8753386777053699 24.216829106671177 25.776506844294424 11.50845168697888 0 0 0
757 3 -0.8418303845644708 14.647550251448465 25.67213842969318 14.640122386619632 0 0 0
803 3 -0.7692046941822688 18.21197532014582 28.729720719106478 11.54720061737697 0 0 0
761 1 1.458925129310077 18.599579772481086 27.575398339126455 15.7854320841273 0 0 0
762 1 1.480693405007935 15.263506484943957 27.62848096474571 17.649264441538072 0 0 0
991 3 -0.8901059985357581 20.872329405888056 23.576313388544257 16.131880660555133 0 0 0
164 1 1.293719959058438 26.76180329079496 24.35303605782518 18.758396224633103 -1 0 0
769 1 1.429162587634319 15.182879386152312 24.87133260646246 12.418490362963341 0 0 0
770 1 1.474102433360223 17.684727163659314 24.857757296584033 21.749449515042002 0 0 0
773 4 1.087105349578258 15.370634890424324 27.142502344398842 14.621802968138768 0 0 0
774 4 1.164751442473117 18.456406401332124 27.426202493731253 18.821837218305234 0 0 0
775 4 1.14293496424881 18.574965678289654 29.951394529121682 20.773916712372923 0 0 0
1500 2 0.3674172068230535 20.443727668651288 28.138691872017805 20.43333949565872 0 0 0
1034 1 1.395714414128032 20.673762606058048 30.547690005373948 15.533565901137237 0 0 0
783 3 -0.7509791011725053 15.781911307709874 27.324379611666686 13.041391302756896 0 0 0
784 3 -0.680137029244001 18.813957811814003 28.314216789184236 20.236988386786223 0 0 0
785 3 -0.8305705736879551 17.74113634200225 26.031300059946933 19.137606875221458 0 0 0
786 3 -0.8710585722082284 14.200662995524485 28.169125029485283 15.132564248014722 0 0 0
787 3 -0.8973100345306462 17.52573034233579 28.36767105237504 17.893238494988935 0 0 0
788 3 -0.9297586359625717 16.536525954834914 26.873613738042543 15.69499748060936 0 0 0
1613 2 0.3738537173841386 22.151491011857814 25.40580852894336 21.5846202658186 0 0 0
792 3 -0.7890848656182378 13.531820890175926 30.695120076966624 20.090094260154082 0 0 0
746 3 -0.742937687669245 16.732721449439776 23.66020046320448 13.496476272711718 0 0 0
793 3 -0.8712005841289628 18.36055899634601 29.980655937293232 15.135400152272767 0 0 0
794 3 -0.8882685613372967 14.877103423665273 29.775454251912816 17.687597574912402 0 0 0
795 3 -0.8793210032302231 18.940608689350988 25.268730023459373 15.948358853181963 0 0 0
796 3 -0.8671600955224377 15.426091331005795 25.303286371823976 18.054627506783426 0 0 0
974 1 1.417792122202957 19.767680418908913 24.64864630696072 18.265057099954504 0 0 0
980 4 1.015607043603103 20.201757991355212 24.634790025177406 15.113920326524271 0 0 0
990 3 -0.7242879442339752 19.61473164657897 23.96284344182302 13.640843999944881 0 0 0
1119 2 0.3136036030552622 26.17180383499808 24.01665055144724 11.424080021042032 0 0 0
1003 1 1.367312317266485 23.120332865918993 24.62060589459983 16.462007666471706 0 0 0
1009 4 1.145735949234049 23.667662954532094 24.64602195167318 19.491779865197778 0 0 0
1340 2 0.3819150610011173 17.216074217101188 29.77280373911355 12.485310528583959 0 -1 0
1017 3 -0.8981628882899002 24.46442395043906 23.504905847554195 18.694071340687174 0 0 0
1027 3 -0.9424649103969157 21.32114394111794 25.75111022931578 14.60633051755031 0 0 0
1028 3 -0.9035515069025667 19.840480523791005 27.075032437645955 18.066123629996774 0 0 0
1031 1 1.481992990741599 25.682028820165943 27.477764166083016 16.41593080915338 0 0 0
1032 1 1.461934737363116 22.063434057554286 27.61609827318133 17.866630748263688 0 0 0
1106 2 0.4048086171477841 18.10593684236688 27.828863794658407 11.897992028452657 0 0 0
1543 3 -0.8220852535431442 15.011408656803846 29.513429655937426 22.123340499405757 0 0 0
1442 2 0.3454873601297266 24.083416025540714 25.556774718408544 22.15050158987151 0 0 0
1581 2 0.348642514994153 20.085904018954537 23.577989028862888 20.295051424426468 0 0 0
1043 4 1.064902919369887 21.968315650874477 27.250398616681444 14.90785832790827 0 0 0
1044 4 1.04063716293588 25.286838931153234 27.301501746826478 19.392245867150606 0 0 0
1045 4 1.051512345299913 25.440233810567868 29.637064141031164 21.67203749269781 0 0 0
815 1 1.432603590039165 22.018967267297604 30.335721084925837 21.417343432500118 0 -1 0
1608 2 0.3698097570580379 21.714641982236714 27.462640377623888 21.15119958132823 0 0 0
1053 3 -0.7645384898583658 22.481611512993492 27.676390730452297 13.427626652360376 0 0 0
1054 3 -0.7257002609439508 25.438764953321282 28.110574709301858 20.918544849550656 0 0 0
1055 3 -0.7815514305252819 24.695472281749243 25.87123367954111 19.845855520664678 0 0 0
1056 3 -0.8878862230670514 20.79457558081175 28.23132420402091 15.560772155689293 0 0 0
1057 3 -0.9041180066212539 24.439224720374312 28.203933273700457 18.266016056659502 0 0 0
1058 3 -0.9304331946711959 23.134691406748967 27.040600321658037 16.05932938823561 0 0 0
1016 3 -0.7900385692104847 22.96858070466505 24.000348004921797 20.832142781940725 0 0 0
1496 2 0.375169061326181 16.233950977359594 27.456124504348132 21.917980384500545 0 0 0
1061 3 -0.736603532597444 24.13803037212734 30.2455250672925 13.536443665452117 0 0 0
1063 3 -0.928575754643346 25.35716187670642 29.855330566717516 16.119336802312787 0 0 0
1064 3 -0.8850859879949399 21.618103813776443 29.810701865984807 17.89068982294983 0 0 0
1065 3 -0.8668802266801332 25.72016873198682 25.225811137769707 16.46608596348777 0 0 0
1066 3 -0.8995271113403189 22.470535509671475 25.252453564003574 18.467963415178332 0 0 0
1087 3 -0.7895408120320677 19.04039470432517 26.89137682662654 13.20838225854758 0 0 0
1088 2 0.3269152211305505 19.970401970521618 26.824373191982996 12.935670697703136 0 0 0
1089 2 0.3526258738566606 18.743712437633018 26.008184788608087 13.155866248442582 0 0 0
1100 2 0.3510488300419657 23.05288619991932 28.488583630121408 13.381680976943727 0 0 0
1105 3 -0.8768479754069217 13.964586794040182 28.737123052935345 11.606459077060757 0 0 0
748 3 -0.8351384460639604 17.363039610046425 23.564064484256175 18.459218067077217 0 0 0
1099 3 -0.8247398203757126 25.386086933560993 27.62645080883822 13.708261567913608 0 0 0
1185 2 0.3467180104071712 20.87399187048698 28.759514560632944 12.692148629945986 0 -1 0
1338 2 0.3619306250756784 25.799820128642505 24.23458423082983 13.626643214878282 0 0 0
1521 2 0.3872145081144438 22.119297251619066 23.44412592598801 20.78296417566588 0 0 0
1459 3 -0.8196433955082848 14.877704772973583 27.364870234650777 20.34643857553297 0 0 0
1039 1 1.515796396359907 22.1401734775262 24.811176818000856 12.932019295680666 0 0 0
1134 2 0.3673335135533684 15.094738913695638 27.900147919034893 12.446446281093442 0 0 0
721 3 -0.9128013942498632 14.170748226965886 23.5502259651183 16.183252149183573 0 0 0
1183 3 -0.7725621308238879 20.651743346855426 29.729538648672747 12.611663694338699 0 -1 0
181 3 -0.729103052547412 26.566299558746802 23.936915067706174 14.104834782994326 -1 0 0
1436 2 0.3591831750775676 14.300864995397308 24.25199576859851 21.660018945865765 0 0 0
1184 2 0.3554563708999208 19.65937912245041 29.65088062618583 12.515051897590896 0 -1 0
1460 2 0.3691144000750547 14.916880459983938 26.4128183746071 20.56911440992817 0 0 0
1046 4 1.128116548992771 24.54906982772075 30.79356005196704 15.049959806132998 0 0 0
1224 2 0.3823882410837379 26.321242001137307 26.694598744766658 12.613188657419865 0 0 0
1214 2 0.3519289330738016 24.72480856852466 29.273321566084878 11.520858088680027 0 0 0
1393 3 -0.7679050981069092 19.94910208493394 29.60079923371498 22.308811731577272 0 0 0
1305 2 0.3732249367870409 25.426932597999215 28.47206204741297 13.368493567486395 -1 0 0
1579 3 -0.7892758340113617 19.952828187431187 24.475489555386687 20.305849300505443 0 0 0
1545 2 0.365835050081522 15.051603779292558 28.784601803220436 21.43440488473184 0 0 0
218 3 -0.9592903138054562 26.74377651476134 27.02181296241313 18.84223431753147 -1 0 0
1336 3 -0.8623097217542584 23.731964793613972 23.826665278701963 14.073950214021053 0 0 0
1461 2 0.3362536038943206 13.963583991469982 27.648532776157705 20.24603664924942 0 0 0
1606 3 -0.8527017513327032 21.52708033722899 28.242474298483128 20.451100785715568 0 0 0
791 3 -0.8439347245023145 16.675717046417905 30.454401501787082 12.944851844459729 0 0 0
763 1 1.406455025754697 17.196304637928044 30.70852768703075 17.363275311178285 0 0 0
1495 3 -0.798596726329211 16.883952868227077 27.035726125251674 22.46862210320542 0 0 0
1171 3 -0.7420466554250851 17.76920111448239 24.65197465145275 11.465467282292943 0 0 0
1303 3 -0.739987411485628 26.82546944215906 26.17879358004673 11.912395288338939 -1 0 0
790 3 -0.7715121810514169 17.306157319672376 30.487414739418675 20.007191629690972 0 0 0
1394 2 0.3392512503705425 19.8998103594309 28.64253223000955 22.42726576817428 0 0 0
1544 2 0.2993258385050103 14.047425349645778 29.653376749015937 22.35236847510732 0 0 0
1223 2 0.3589728114941499 25.201836780923262 25.552565609694355 11.467269321731 0 0 0
1304 2 0.3957977665096615 24.128699349686322 26.744039014287313 11.467093318881304 -1 0 0
739 4 1.093359738986841 18.200291154772074 23.167620539315564 12.92648130279093 0 0 0
1612 3 -0.7642677684870909 21.999451743236147 26.23768862012765 22.178086079319613 0 0 0
710 4 1.075022301766313 13.481593580238275 24.559343357423128 15.111047947469398 0 0 0
1614 2 0.3974917694824048 21.101257850421675 26.066070819544816 22.57037774990716 0 0 0

Velocities

3 0.00022335986404523327 -0.004198910180373538 0.003611621280931939
4 -0.002367622101631925 -0.003964605683206053 -0.0020044215446811267
1275 -0.026008768963035372 0.006659657419268886 -0.01608105737429567
9 0.004382150500906939 0.005877349431590255 0.0022529684423349228
10 -6.394403424658912e-05 0.0067354100584961375 0.0008703854782730517
856 0.0036634100312588425 -0.004306718886823991 -0.0034372865587885457
12 -0.001977026939342286 0.002218824899943008 -0.001273989754231759
864 -0.006367208516906209 -0.0010590386434178541 -0.002605400529693984
25 0.005898530458518068 0.007044959546778823 -0.005341379548324942
1246 -0.003954579759961671 -0.006915755853525676 0.004164257665158783
27 0.0011117916443974876 0.0011607589610789573 0.002254430936415813
28 -0.0029871364207905804 -0.009224881369797136 -0.0010895289325843856
29 0.006732264562198038 -0.0004883295312628755 0.0009382407678520604
30 -0.00417708787798523 -0.004479510271168691 -0.0022496042622955183
31 -0.0071147475145286595 -0.003065332339894879 0.0018915431095394596
1377 -0.02323896668641301 0.007048450515129871 0.0036617962313761957
33 -0.004370042158433442 0.0054592538634794276 0.0022052062293294286
34 0.0015199762308714415 -0.0015966664305966751 0.003000601095763667
35 0.0011112306820266456 0.0007852152682782508 0.0005883545713869408
1376 0.014279056232090585 0.01991186175346666 -0.005525851586419324
1180 -0.0033772747574002233 -0.0007275925638492909 -0.0010024462565840955
40 -0.0021359117499815056 -0.001855938082088044 -0.000556392490942122
41 -0.0029889344979663144 0.0008312924243022333 -0.001956427756090485
43 -0.0014306103486469424 0.0010482037008022619 0.0006163388041439895
46 0.00433769233954583 0.0001936660571556547 0.0018100686358627869
47 -0.0013209569494758444 -0.0019115105200017857 0.0020994884089023556
52 0.002295696254416019 -0.0009580991657520689 0.003420121969436073
53 -0.005403664086478941 -0.005624817152996712 -0.002301207722484368
54 -0.004806545186842446 0.001108482598235172 0.006285542061213733
58 0.0003357921873041922 0.0005031240009875708 0.0024825592059632136
69 0.00024135635993018185 -0.0026039343171019975 6.793781221309512e-05
72 0.007262536276423251 -0.0016553584377067775 0.0028622361735194807
1244 -0.015012620480412882 -0.003556997317485937 -0.004000350865871289
1274 -0.01857987265670474 0.0018986330786755301 -0.0022505008035302635
108 -0.004840716332889678 0.002711056839204105 0.0035357165032697223
273 -0.0005162650142017212 0.0009516861546989822 -0.0013295883097847558
274 0.00035774855132820647 0.003028190582603305 0.0004921259686234594
276 -0.001137955906893759 -0.003192529556866879 0.004271088674792182
281 -0.0013865910353661908 -0.0008859181747089058 0.005674409456468483
282 4.969648306924386e-05 0.002557574426862562 -0.00508429440090283
100 0.0014485480921093315 -0.008761218709930943 -0.00397802185757079
296 0.0044522090971684785 -0.005452899691099332 0.001827966200728601
297 -7.150289536073646e-05 0.0036518813203800836 -0.0030599968594090814
298 -0.002930437206359057 -0.004188860245531483 0.0006919562063989185
1273 -0.0027253961935090197 0.0081523527793517 -0.005510933399338237
300 -0.003814106667189132 -0.008200549716128954 -0.00294552344958902
301 0.0015738827000776208 -0.005593724107913454 0.0017115213675461404
302 7.972109508796459e-05 -0.003948051925925607 -0.0027677471517753836
1323 0.013155751678568469 0.006975246870113744 0.0029752655548279322
304 0.0034347925779902176 0.0013231030656273251 0.0009203015777080738
305 0.008516909767772791 0.0005663330282364965 0.008469370161899241
339 -0.0019293894384891563 0.00144152750419555 -0.004069916460904913
1591 -0.0028097348668298253 0.0008236060733470797 0.0010476656707472198
1130 -0.006234510143195038 0.006199772788170044 -0.01263992805554189
311 0.0015510996095668803 0.004801399200487479 -0.004347614387865532
1551 0.010996033096235463 -0.001897568564791975 0.016482924630147867
1530 -0.027728004013547587 0.000561337346118488 0.005602733483294887
317 0.0004183882673707032 0.00032268166301354945 0.0016075545818974807
80 0.003435285285712072 0.0008732980250825413 0.0004728266084648706
1387 0.006336186570034932 0.0002263564283866096 0.0009731047740629997
850 0.00034929918182386344 -0.0009322687484963906 0.0019151558747164679
26 -0.0021192300931525145 -0.004403917771289301 -0.002648611985588293
1362 0.023237867172193963 0.019670772793742127 0.005489131540854535
342 0.00030785776032326423 0.0010428212876370565 -0.003975662247873183
573 0.00641764962284951 0.0017796748320370692 0.001933010191181282
1243 0.0012376325195329364 -0.0017286880643641487 0.00161391556962864
378 0.0016221236540973785 -0.006674533399581115 0.0008941292826951528
1129 0.0013339728454933731 -0.003246004217454922 -0.001885172888671511
36 -0.003097281964617571 -0.002128046637006061 0.0016313731400907127
1091 -0.0037612149842239664 -0.006747005416746353 -0.0012809977815947033
1388 0.022576684145387733 -0.012085470978643998 0.033547167856598274
1522 -0.0020592435277810325 0.004478204055420986 -0.0037599688149966798
1375 -0.004648761056407006 0.0019474018765780932 -0.0010706413046222666
322 0.0020784227684186737 -0.0033174932006513327 0.004185383290760235
1529 -0.03159587966337004 0.012652717224123094 0.005297619259193173
11 0.0004116686956460497 -0.0018215865644960229 -0.0033276395764210826
1248 0.011067871084307884 -0.010712890481974746 -0.010843051449729886
1112 -0.00772431407415797 0.0026575621925281024 -0.020219157304152417
1528 0.002645153980656757 -0.0028761194027622245 0.003102356466314279
1247 -0.020558698478375395 -0.01222148084054216 0.004842585926608556
1131 0.016349994303085744 0.027817586666940484 -0.011234009588495674
1090 0.0022752559220264035 0.008212452187697363 0.0012420199915427418
1549 0.0044882841082747715 0.0030399958417437903 -0.006406741106666896
1366 0.0058123603949748115 -0.012082631139296049 0.006282243478746212
909 0.0029465941395435636 0.002424140086629071 -0.0031262073706889936
1550 0.009334115127240878 0.017989274585654552 -0.010846160783339494
328 0.002134321718134168 -0.002021896413894664 -0.0008822112271514856
1622 0.007724966531626339 -0.019971545896210634 -0.02099586973159793
1165 -0.0021187249649964068 0.0012102361233526943 -0.0029738224428203694
1429 0.0018640952520905204 0.004637743221154833 -0.003752788968863426
1361 -0.010721585553295759 -0.005221450796833354 0.0032402276239949725
1167 0.007690941773919733 -0.002901945925405413 -0.008159593613965186
1360 -0.006443979286629433 -0.002691315330999985 -0.0021609317789061206
1 0.0019133627048106537 -0.0042881819091304535 -0.004141759474973966
2 0.00045541467897885433 -0.000666215423333401 0.002723543412665712
1439 -0.005203350554462915 0.004849098003087652 -0.0121481966857475
7 0.0009024581313383896 0.002472355538370118 0.004576997713667371
8 0.0003208248845355199 0.005783753317888566 0.0007503364341799597
565 0.002182315223677195 -0.0018493578801871953 0.0023487272710422252
14 -0.004130528233744149 0.004421429849935929 0.0048104777053448265
15 -0.0017514718646160176 0.00662064772026319 -0.006361908434308579
16 0.0005432031958234938 -0.0004578662029849792 -7.880923119457223e-05
17 0.0006670422091365839 0.00028487770307907587 0.003242881357900965
597 0.0064848209364212405 -0.0008814240186120856 0.0034524087284771004
19 0.007254787292165466 0.006451136737075031 0.004879321155106426
21 -0.0026553259586960198 0.0015809021233276067 0.004657866749965401
22 -0.000522675626345007 0.006749137033743061 0.0034480567230728417
23 0.004559520488789968 -0.0007754014935679606 -0.003694103634864251
1113 0.012606586085979022 -0.016272131210578526 -0.008974390352514874
38 0.002970991881794689 0.005921402607412743 0.0005860002461963519
39 5.423653322532991e-05 0.0017568835098663025 -0.0010503820617103713
42 0.0015084311965476854 0.0027402508057685496 -0.0020503712054344174
44 -0.0017590448660105005 0.0007959438180497285 -0.0018468271021741239
45 -0.0034060068431628837 0.0026358529689456496 0.002167419648880395
48 0.004191919960487935 -0.0007828126156456473 -0.0010162544897555194
49 -0.0020217167447844227 -0.005443961560272042 0.0006317783849889701
50 -0.0014576313032750507 0.005232933258333879 0.0008473492106609429
51 -0.0014925590065902137 -0.0008836452187636066 0.005908630678753136
89 -0.00403140843050426 0.0020144247417530963 -0.002045444801418744
63 -0.006453250071202099 0.00712754010078084 -0.0019826381000646073
852 -0.004371989020914207 9.935633116541017e-05 0.0010887126252814778
79 0.00227098190977805 0.0013165823097972089 0.0002777734160372528
1187 0.018911712581109283 0.017641106252938837 -0.026400636283413458
98 0.0011040353809199988 0.0019621132660204046 -0.0012297596903350144
271 -0.0017282376562645927 -0.0018593367337173972 -0.0021470750279063678
272 0.0009184273718610738 -0.0018889935212892056 0.0023724940550964857
295 -0.003245233493959963 -0.003316562688131368 0.004357493135107946
277 -0.0016183633131616386 -0.0007184885577997231 0.0014375582717316552
278 -0.0007213544907171413 0.0002493838921028364 0.0006239801481768052
279 -0.0019916735664810385 0.0004452023298311004 -0.0014371813183434157
280 0.0014116024146639764 -0.0009369568836059844 -0.001252415228769301
283 -0.0012594833901444994 -0.002660937752390732 0.0014827605045680552
284 -0.006334173323324951 0.004728638144722192 -4.2153652390105847e-05
285 -0.004553600507626816 0.002130892194220447 0.0012872557699398072
286 -0.006052762094735203 0.0008724395345187468 0.001395680630812717
287 -0.0005402754679873892 0.0017861847130130838 0.00408980841220104
288 -0.0011422666780426674 0.0005345725444126118 -0.0005662043810413087
289 0.0022401586980178028 0.0005185860658838112 0.003737923265171906
291 0.0016376040454451925 -0.0048375017447033 0.0030541522351427873
292 -0.0014329139380306344 -0.004641177996838909 -0.0020412553179442908
293 0.008010674408428163 -0.00014857508420763397 -0.0011943662924218743
6 -2.0545514490979565e-05 0.0003086246921043331 -0.0005428927610399203
1157 -0.0009162791711750755 0.0012081821571310514 0.009760758289104358
308 -0.0026313106386285294 0.0007133633158402625 -0.002382098715082626
309 0.0021736512854567073 -0.0006906194226319252 -0.004873428256870703
237 0.001220637379695594 0.0011089755881148163 0.0008679352732569003
314 -0.003362756744254706 0.0007580414188745972 -0.003809003365373758
315 0.002766417183692854 -0.005937287736209358 -0.0022203657508736083
318 -0.0004350319180273477 -0.007936216738896603 0.006118318239636873
319 -0.005632739930481391 0.0005165724530408195 0.0012209370261498458
320 -0.008464292312035184 -0.0031654931626910326 0.004167156165850302
321 -0.003955268346759718 0.0011333279932970062 -0.0009047935289921055
327 0.0010187995512379033 -0.0031753117294922896 0.003721594843566961
333 0.000923484646728024 -0.0012308200007936732 0.0009031720520973755
337 -0.00047902407259869755 -0.0038701537979644145 -0.004298180713125883
349 -0.00662981295563844 -0.0004160248353339638 -0.0024182462777538995
359 0.00018870514849496893 0.003631196310639089 0.002334543235770247
367 -0.003771584017358895 0.0042530630684260076 -0.0026756931399904253
1502 -0.002949928926198691 -0.003902007460785403 -0.0036201749830389925
548 0.008971238114677446 0.0022681551378006394 -0.0021611854515219756
1188 0.001378315294055371 0.005130083132830655 0.006594847494621528
1225 -2.342143091452787e-06 0.0010822154218697853 0.00010793719282294454
1226 -0.03827770466901123 0.016616361146686444 -0.0144065271584817
1227 -0.021641780666632197 -0.004998623350980728 -0.01005588068179243
1523 -0.01144613870430788 -0.010094056132126867 0.010624620136825476
18 -0.0033139692866254373 0.0013929980310554788 -0.007807987631129201
553 0.0018422672908592742 0.004960225946334156 0.002376918127922632
1524 -0.012365491174404681 -0.003947767753632175 0.013508963186150276
1440 0.011920801362908504 0.013746614680562394 0.012789378260368772
1389 0.015993916616503314 0.014209111738234118 -0.016628952523186205
290 0.002299301556441705 -0.002014140215367434 0.0041265893436640295
1181 0.02371681938359516 0.015491711539547589 -0.010425612238121265
303 -0.004983190728027391 0.003320244065814659 -0.005183177959915169
1465 -0.003149020462958298 -0.001761479193999556 0.003556077283114128
1438 0.005667203626589059 0.0013081719641205448 0.004729211374605784
1186 -0.0011233714263916418 -0.003578646747868168 -0.006886527511304237
294 -1.1160825624157764e-05 0.0018650852941945388 0.0009148041104697786
1467 0.001038770082119202 -0.02349819780379079 0.03108479024050604
1501 -0.004476192645412805 -0.002503781131165408 0.0026087511013771483
1503 -0.00120886722433527 0.008514119787630638 0.002604809094282743
1466 0.0017816958755180236 0.000902768480792563 -0.009540250811808109
1553 0.0021265770370614357 -9.549041041914124e-05 -0.024492764703514712
67 0.0035501623283649537 -0.002647993291654366 0.0022022814813244048
1552 0.011739395532551274 0.0030043977934211402 -0.000760013288395825
1092 -0.031118109099194498 -0.023581963505690858 0.019301966581804633
1206 -0.02706783315524594 -0.004300050444250619 -0.011959479925561303
236 -0.0014998697326133275 -0.0014844623510168948 -0.0005609410941936138
20 0.0036064318554943375 -0.0004482082420823564 -0.0011504084478631688
56 0.0041783321134084795 -0.00011042631120660969 -0.00366652811120852
61 0.0006052175341668163 0.0045582538401689856 -0.0008286211616116562
1146 0.0056440470501164285 -0.006104009380160307 0.01418123944806158
68 0.0005828231222863575 -0.0019759505566179043 0.0038148540466532476
70 -0.010232951707614197 0.013786361104464483 -0.0001625054855811322
71 -0.00010128120479672025 -0.0013316749589508423 -0.00011784099220014208
76 0.0010105721478453694 -0.0012738062498078933 0.0010611671744634313
77 0.004733316301223588 0.0002515012263365498 0.0031523883580601214
78 0.002561111840423684 0.0003022098772402187 -0.0045687978442347866
85 -0.0008528668905943864 0.001836400287906784 -0.0010321061561115329
86 0.0016710027717361626 -0.0019111552614950692 -0.004153981192624319
87 0.0037354268872712747 -3.3306330991658224e-05 -0.0017342163357476229
99 0.0076291578809349475 -0.002501333481420917 -0.0074054738354896255
101 0.00038925710131968626 -0.0009139084571768496 0.0015862227874176723
102 -0.00011963918553633766 -0.00044021436678474236 0.0019420507661917982
1196 0.0058529158241946684 -0.004067565275405355 0.012946240059256927
1285 0.0035292710807729283 -0.002257396744642423 0.003304626905682397
105 -0.004080155465938242 0.007189711793392713 0.005496338011740033
106 0.003068535450921233 -0.0017256123919459812 -0.005826678559497012
107 0.004369513326283305 -0.0008023926108933699 0.004692948142228305
1471 0.004932876459614496 0.0016053172403419226 0.0024113307141461794
114 -0.002168476427005227 0.001364744339941308 0.0018627697053232336
115 -0.0006946523594197793 0.0022600124290037184 -0.0016603303239715696
119 0.0024239205892148284 -0.004206088015522682 0.003136726446389039
1425 0.01580184251370175 0.005510372166323897 -0.014003890041409381
126 -0.0009529438562339702 0.0031473980665659 -0.0029548938803111856
127 0.005905330080897485 -0.007148155004480028 -0.0007877239266357114
1368 0.02361230459041612 0.003930711969370601 -0.00660353574438421
1621 -0.001796397908881759 -0.0014661753719991681 -0.0002140918914865869
147 0.006580718526107115 -0.0034928806665527885 -0.00036122211059426716
150 0.007190433098973674 0.006056397879292965 0.0035937131513550245
151 0.004930550448365851 -0.00242328877359797 0.0026813124927790987
157 -0.0011540717225659457 0.0012164931131551616 -0.0009358014976553852
158 2.8859939972556303e-05 0.0055809774128374205 -0.00555541870076569
326 -0.0009143403464720367 -0.0007393119514053991 -0.0014424052676273197
331 -0.001142587023435805 0.0019621707100080394 -0.0005024280902182336
1147 0.002000855406218074 0.007130441255469092 -0.001741876320842267
338 0.003694623323799004 -0.004216498541965992 -0.0008774569722383818
110 0.0015721784603623262 -0.00016901569725775312 0.0038088725847200454
341 -0.00890195726041712 -0.0033491813640127975 -0.005621232951061704
346 0.002512798518555516 0.0007750183030821686 0.0031847597791526245
347 0.0025223188421803315 -0.003270028117017123 -0.005350703216629727
1533 0.015911097679562558 -0.012278704680688432 0.009249270256010397
355 0.003705344732747877 -0.004028521209025597 -0.00010824750460378417
356 -0.0014734124854699619 0.0014297428804635108 -9.865475315627466e-05
1348 0.0009844010633572593 -0.003429640858333654 -0.0010978406087207293
368 0.004491283683516674 1.2991398391200214e-05 -0.005341564822694034
372 -0.003026545515220655 -0.0027533446424153926 0.0061270889448913615
371 3.855512658952584e-06 -0.0024825816276096745 -0.0014803460304598673
348 0.0006631021730951399 -0.002698286311312473 -0.0027833204164573943
1356 0.010995763132342014 -0.005192036490143164 0.011516104839684162
1148 -0.0010304879641815532 -0.006163922515461803 -0.030403432313721095
375 -0.0020475030840147786 -0.0074551198103865145 -0.005020119396726114
1349 0.009180452546835001 -0.019851627004659738 -0.003986469941440989
377 0.002669502886515643 0.0031137532585923684 -0.003930391126030987
380 0.00030082730096362255 -0.0012795194993129298 0.003785274427228079
384 -0.0035779539690952568 -0.0018668702717215468 0.00291075184025831
385 -0.0016392734520853226 -0.002085591963384302 -0.0012982498250475062
389 0.004941109533804218 0.0005954204651832144 0.0002971192690264748
1205 -0.015485839194005861 0.013692005326162392 -0.012905255743825995
397 0.0036992363081637222 0.0008478529751832744 -0.0026038672275935787
398 0.0007458908578221898 0.0008729429282949395 -0.0016566052804918223
1354 0.0005927244432698811 -0.008453244361803707 0.00029746752028940335
1623 -0.032197703389816194 0.0036343379711690402 0.001318635534757833
418 0.0014287501714824362 0.0019061541030982662 0.005098019569022962
421 0.005803019951294264 0.0006645391952171309 -0.0014531505183085385
422 -0.0054065410730016385 -0.004213550151152179 -0.0037745244696415375
427 -0.007020892161381134 -0.007860717134205454 0.0014233852289146386
428 0.00207240766312408 0.010210368973346791 0.004585552466949675
1587 0.011651729786503869 0.03470991443422396 0.013780616529590648
1507 -0.0016240814166395188 -0.005588308627375771 0.00164518762287371
417 -0.0021483121208156083 -0.002457951801475982 0.003994005271487135
103 8.054991726476091e-05 0.005802412450643961 0.007052374241481735
1611 0.023477611630510185 0.016182985064266613 -0.011553347816999258
1418 0.03468022764053655 -0.010407220554402451 -0.009459905502299108
1586 0.0002003473160151016 0.019587778002458357 -0.004381914217702862
350 -0.0024383883288961097 0.0003772540896915625 0.004447408124560534
145 -0.0006913256928552007 0.005744879143640122 2.4857409768796673e-05
897 -0.004616723592608671 0.0018237780907857332 -0.0014024654337798652
1197 -0.02191114911576735 -0.02107034993890193 0.011829515099286154
1585 0.0019570316744726168 -0.0029621388387944224 0.001639875938497565
1509 0.0075906952593800415 0.009459998964894769 -0.0039812601774524056
1511 0.008612574341031867 0.008142435160168058 0.024833282718708154
1417 0.0013650766870204325 -0.006278852414534683 -0.006419158705229325
1286 -0.03554238509840657 -0.009803365140850314 -0.006053676824387847
1610 -0.004506162465822589 0.02383112611378393 0.04406782957119743
1609 0.004154045132505566 0.0006367797493418075 -0.0042939915316677945
335 0.005758261674706719 0.00513037768951477 -0.0008433182357311799
1218 0.001164654920536797 0.015079388673952332 0.032313072561299554
1350 -0.00325003896427119 0.002047713424570437 -0.021271029307866656
1355 0.003847218098913762 -0.006508901983440298 -0.0026199731807675145
1508 -0.0007135121718243152 -0.0222663230201843 -0.011816775678637224
1618 -0.0016259441478936936 -0.00111850828616604 -0.004319459424290077
1473 -0.004380838987760289 -0.009363379117881442 -0.0010565738555880688
416 -0.0021929866203605707 -0.0032386366978349942 -0.0012313665461894155
1634 0.000707731947350217 0.03304127873320358 0.004768993641282259
910 -0.0013555903077434686 -0.0019913087150834527 -0.005089373030727407
420 -0.003146661368424082 0.007451570624785399 -0.006751829769358197
1619 -0.025950093435676988 -0.0052881025704558686 -0.035852357604213805
1145 0.007922664079612722 -0.016065891292403718 0.01837923341130826
1512 -0.01430718968543895 0.008127125307162832 -0.01581253552875104
1598 0.007510865071768359 -0.004749770719186322 -0.007492593397847794
373 0.005804389823170467 0.0036540821802689273 0.005402789269097146
1256 0.009700875840603675 -0.021075961988632305 0.0063043063207672894
340 0.00467362446545608 -0.00452964232325911 -3.4596146326374315e-05
1287 -0.008600323342754982 -0.035967811931346336 0.002849507569057502
1321 -0.007258535003350548 0.006402829415094711 -0.004158923376272429
657 -0.00022553436996709128 0.00572242584879324 0.004977863529378925
1158 0.012828670434001791 -0.008515869370766461 -0.008675279124872865
1485 0.005264828644804995 0.021607172577144187 0.0060472564322464305
1462 -0.0016485248357546746 -0.004701213333156949 0.0005533891623482719
64 0.00020518070876217578 -0.004062366547049703 -0.003385237778430906
381 -0.0023875553898630203 0.00021981185797328867 -0.0022559441921099848
73 8.592040234962346e-05 -0.0033767159527842566 0.0005690533047189037
74 -0.002914341494506266 -0.001707096046765043 -0.0009831869346359733
75 -0.00038306104155844123 -0.0010426928544857441 0.003650807190044195
81 -0.00041992095766382964 0.0015258142275916943 -0.0077553879240847496
82 -0.0008500934374740496 -0.002694742781908084 -0.0026250480898952263
83 0.0008692878045275497 0.0020897498183139063 -0.002390304705565849
84 -0.0001468887105583049 -0.00144903453503375 -0.00427997248097909
88 0.000343960069345474 0.002414115333657901 0.0047801043234695795
90 0.004056502338376001 0.005320360990668799 0.0033922897297081643
91 0.0038628361252169936 0.00013270244515269693 0.0025330956438839526
1179 0.011881394385831684 -0.008845752388897876 0.010175659099708516
93 -0.001641873763937187 0.004944045784356981 0.0055767341834599
94 -0.007366131714737841 -0.006582269835667393 -0.00047628683361324313
95 -0.0021855704327095704 0.011551418698712271 0.0032462643732887376
96 0.0017681944253521479 0.002494041983417934 -0.002436411075883403
97 -0.001988140103609009 -0.004244641245858377 -0.0038424072627603763
118 0.0013517645970450968 0.004071247275185824 -0.0013233349575121026
1510 -0.006754001542255899 0.002752817892747232 0.001349593603830702
595 0.0014448986348862326 0.0012861651402960978 -0.0006380622187249202
1517 0.011095147318102752 0.010964020462492969 0.012605582977878758
104 -0.0004246433545011175 0.0012876236806919385 0.0015105464391071057
121 -0.006092999984840094 0.005443316419996206 -0.0014494134489422595
1626 0.013387743346532631 0.009542337894710104 -0.022969343101980573
1484 -0.003609902610791754 0.01050747415224621 -0.028780199732029853
1526 0.009373079433464281 0.004127875498556299 0.005153163397124268
133 0.004619720841516203 -0.002271555715382829 0.0003757732227159372
136 -0.0020657089693145595 0.005230882273756774 0.003024073073212661
137 0.0033253354402628657 0.004742983809521148 -0.0037750569601327872
143 0.00579569468882183 -0.004089399990499575 0.004489796030322541
144 -0.006385394624368699 -0.010541972232674475 0.002212559363118658
325 -0.0008879801035308189 -0.000677869245463028 0.0021842776399117214
329 0.00011243579516880973 -0.0017963786147375937 0.0012253165282108329
330 -0.0014123457158746698 0.0010074845789794919 -0.0016737268005587592
332 0.003551863736451394 -0.003129823167833402 -0.0016683282865459163
649 0.0032904369803363883 0.0031129040730431 0.0024686695675020308
336 0.0002505781690934366 0.0012522462334826415 0.0014615375776640335
343 -0.00039430004174581946 0.002022568677370274 0.0020183942543023485
344 0.004175730622175073 -0.0010148106699815905 -0.0010393974594717361
345 0.0007623384772844947 1.9679096843427534e-06 0.0004870317191841164
351 -0.00022998148638711467 -0.000738040312467224 0.002071140286963809
352 -0.002291434823315692 0.0007624656333097425 0.000631284989195303
353 0.0011545011450325696 0.003959404454616168 -0.005613300450338451
354 -0.002060170958299315 -0.0011285143187734156 -0.003927052260008636
358 -0.0037185689829212815 -0.001442816164348456 -0.0022125986384146606
360 0.00729298344094974 0.00014640876444876175 -0.0018610219936358754
361 -0.008358018037008036 -0.0004979555746271273 -0.0026389135001416426
362 0.001600342325249955 -0.0026334370199526387 0.0003336074701193386
363 -0.00021098184242560535 -0.0029504866731668534 -0.00437225554624606
364 0.0028337474047794775 -0.004946226923652963 0.0040542404772630995
365 0.004723249393175503 -0.004266021858027954 0.0002685025167880076
366 0.0013457836323534321 0.00563981594173921 -0.004576108927128413
379 0.004049884864692593 -0.00014182907015887483 0.00035834522053405763
1535 0.0021832154465732394 0.0028426351335387816 -0.014687138102852701
402 0.013404834683054269 0.0039051819700921977 0.00534019433820095
387 0.0006626852860527074 0.0004916430982224539 0.0036091807025284573
388 -0.0014121041787388568 -0.00013227207300489725 0.004125296920223701
391 0.0015050411644447579 -0.0025480707292961243 -0.000837328416848739
392 0.000597433416324103 -0.001370089771418554 0.0031239030147753428
1298 0.005328563131897165 0.007027375557432454 -0.009970058522548075
1463 -0.0118540276513993 -0.00607308329390988 -0.016473105204797923
403 8.227325654381967e-05 0.002347272244742508 0.005099025625947855
406 0.0018575187033446937 -0.002215715558962391 -0.007998676078838241
407 0.0048067740580619205 -0.0019671215905177155 -0.008594558109018751
414 0.0014247906294537118 -6.6537780595918845e-06 -0.004900610636833289
415 0.002965722981211371 -0.0007663673937238988 -0.002072790557175966
1316 0.003950522444611527 0.016202083775693297 0.025950958591405688
1367 0.015555516320177945 -0.004650800604649296 0.024307903235801318
1635 -0.029062207856769908 -0.013401751231775956 0.030946476670029702
606 0.0019272631323657152 -0.0010853426072570337 -0.0025496948052302643
112 -0.0009003687292114108 -0.0009163645765204289 0.0005128956015421502
1192 -0.00011030934608874964 -0.0012525260089862262 0.0007259888404941852
1322 -0.015653020239023017 0.01233695529039288 -0.008845062880480285
1194 0.008023412252813264 -0.00858250826556107 0.012518715101138894
1525 -0.005692657490275579 -0.004269852263470645 -0.0015604580577750788
122 -0.0031164858899744977 0.0004682490750621766 0.004601368456133933
92 -0.006549617701695076 -0.00227257632468333 -0.0012091997766017094
1297 -0.0006324282557816135 0.001814231324427631 -0.00314484501675827
1464 0.010032632210550842 -0.0250673958734155 0.031723500239931895
1257 0.0026472006301752737 0.000748852204957709 0.01550785958518707
1317 -0.015715660318167863 -0.012365695447535378 -0.025276242584968293
1216 0.005127402219909025 -0.001506040090774715 -0.0040438251184740015
1217 0.0036504084678995598 -0.04085498130923403 0.011251235812327119
1315 0.002224760050483151 -0.005891978519430762 0.00033525375034153065
1472 0.01240617282699953 -0.015859019569917338 0.012221004155894387
1527 0.021716512303364428 0.0016363288729247657 0.013369432538270793
1516 0.0012976556706367755 -0.0027645426674505974 0.000932873952657694
1624 -0.0028490455069371686 0.0027359618537663197 -0.0012288637821870128
1156 -0.0025011348805516883 -0.004465333484197087 0.005533075268782535
334 0.0006087070803735966 -0.0002625659232368295 -0.0005730782393473859
1299 -0.02690231294163553 -0.022351130589960314 -0.008590738231156877
55 0.00159157484743749 -0.0009473337096540784 0.0006458215061448719
382 -0.001574135794375709 -0.00017979381208345642 0.002591760871673327
111 -0.0018329019215481423 0.002202527272832884 -0.001456184413261722
1149 -0.022313906961070145 -0.02143335555207987 -0.0029857525490611945
599 0.004919832117666264 0.0007597236149507809 -0.0005760420550507907
1424 -0.0043111345385266914 -0.004433877388363097 0.020073963819017646
1423 0.0033522439510048187 -0.007217360578944412 0.0015822049996792077
1416 -0.003350384482060754 -0.012583209056439266 -0.008253136436694616
1144 -0.004421817866765454 0.0030759667875916497 -0.0011721159952688314
1536 0.018986191613473997 -0.00557394368714347 0.006549197562365088
1255 -0.006269719166691495 0.005401852829755882 0.003111351802324962
1633 0.0017598271487356348 -0.0008282992663002948 -0.002592644069902684
116 0.001532493291185367 -0.004109870653050149 0.003441937274265073
128 -0.006333688038955703 0.000483911918148976 -0.00041324406729579844
1331 0.01573907260207032 -0.00601275410591646 -0.036991910677113
130 0.0006429552929558001 -4.534905833320043e-05 0.0012090111516941374
1603 -0.001578280655018646 -0.0024266286816583727 -0.009093047846341842
1170 0.040070050479459295 -0.009727357926542335 0.029882846139630825
1262 -0.013068789658372956 -0.005214731646815171 -0.013955270362252841
1234 0.004691460193056534 0.0016315809813136383 0.004790981210645778
153 0.0005598675738860493 0.0014608361550430401 -0.004869506645427329
154 -0.004944910259348589 -0.0014653232208160743 -0.0015937440269172159
155 -0.0011453800601731834 -0.006985987740792979 -0.002922758950529654
156 0.002455687830114726 0.0019617207607569133 0.0017154545099318291
160 0.002511510893877441 6.894503373126638e-05 -0.0006167480464023566
162 0.004179709423609199 -0.0016714118756008683 -0.004030233945940108
165 -0.0012113662184374742 -0.0028277520650254236 -0.0016925939668863217
168 -0.0018723082818038043 -0.0009719014617560707 0.0015668909338752755
172 0.0020146990662896543 -0.005073366352738531 0.001964731424426285
1559 -0.0119178663597719 0.00047894606059224114 -0.005353019205405427
184 0.0018428618641051827 0.0024457174881826697 0.00016793227293313568
185 -0.002187467430848211 0.0036181013676768745 0.013208190993258956
186 0.0024101952487680356 0.005755917405936875 0.003848418650312234
187 -0.0048849027537717525 0.0038971162851422617 0.00126100948173191
188 0.005443532734931183 0.005148232771156386 -0.004504979599263171
191 0.0011330775594876495 -0.004779899600289734 0.001798862317617528
194 -0.0012343174980312232 -0.0018839431351072103 -0.001968340554640657
197 0.003271423805046984 0.0016086648257226468 0.0003879868923673622
201 0.0013256736138138698 0.0026139894091268363 -0.0009553374754900152
210 -0.0009858835821645426 0.005552466553812576 -0.0038228755137471255
211 -0.0023628007247276438 -0.010033232197311255 -0.005739474870784055
212 -0.0022217481186697263 -0.003858825106347299 -0.0012932765315736329
1452 0.007494075609094408 -0.011110046702020489 -0.0065745812681478845
216 -0.004664252173631502 0.008418508672318371 0.003345042896278444
386 -0.0035760125901355896 -0.00036860539500912246 0.0004575019676561327
399 0.002584232513318178 -0.006490244661786327 0.0028068649439367123
400 0.004164037133873789 0.006258296339355027 -0.0033412483258490784
1604 -0.014307658920911362 -0.006547000199124425 0.002402659348853397
1021 -0.002467310012109964 -0.0009714486791457947 0.004608865182773141
1518 0.03042001058836422 -0.025386405651971276 0.01317646865433009
1599 0.014396651192736731 -0.01824736332053479 -0.009173621485015339
424 0.004490856372752285 0.0048065264085634775 -0.0015110715186088827
425 -0.0012718081758339135 0.007999776669876231 -0.002409825782763201
426 0.0010698351471611594 0.004209470282438593 0.0047343304768499034
1164 0.006075709141161476 -0.004141551083065352 -0.0001740957847659843
1330 0.0035428722538202342 0.001210190537599717 0.007891868385346704
435 -0.004477967715932618 3.454840207864308e-05 -0.0006093844722792113
438 0.0025878974315360665 -0.0002386592024499524 -0.0003768730407360412
441 -0.002317308578152747 -0.003154130001641772 -0.004389614356244982
390 -0.0015882870719709148 0.0020228351450989304 -0.00017921445755488815
215 0.013741757564667249 0.0005826260905491119 0.001591138818823324
453 -0.0011458376991642736 -0.000544891743574867 -0.004063597877177668
454 0.0004637935527142604 0.0050166952031570474 -0.0013685230347093616
455 0.0014701203854538718 -0.000354169187637916 -0.0024184428060891458
456 0.00851396244717645 0.004333026302180383 -0.0016141222393570873
457 0.011136670313316126 0.00784011562000393 0.0010228392889552148
461 -0.0006705015648041737 0.000927397575438449 -0.006620361306861406
464 0.0017950292350927331 0.002707638978716522 0.0021218662498145103
467 -0.001535270212761282 -0.004478546520269084 -0.00220647344818743
471 0.004798631477830395 0.0010025985379329473 0.0010377386847803514
486 -0.00016215664701170671 -2.1025307132622028e-05 0.0001677782784890469
481 -0.002817561617289854 0.0012933754871797892 0.0026267085917540474
1419 -0.00987276947004282 -0.006834807772533629 0.0007305345653853035
1597 0.0025556575064409046 0.00759149045101745 -0.0026399485459762924
1453 -0.0037622726784867088 -0.0014767105772129365 -0.00022161445716636037
1150 0.003046948562790768 0.004941411616429387 -0.0018646558178571446
1151 -0.015054078548234217 -0.0062637261155739 -0.0033033388411788955
1568 0.008352986226834341 0.00048148001354391263 -0.017223529311841908
970 -0.0021791744608603836 0.0013964237617550682 -0.0011459499000401924
1210 0.0013004603421988272 -0.0015642978042357837 0.005438204983002235
1211 -0.013030117172912952 -0.0033772895091202988 0.0015344810220272007
167 0.004445491552375403 -0.004916558119489534 6.334588613891814e-05
449 -0.004792363284638436 0.0006521354882740153 -0.0038208338053654805
972 -0.0010752312637258247 -0.0041387604251553614 0.005138403054202121
442 -0.0010533383283116483 -0.003337359650161604 0.0016290768275157286
1324 0.007350548894974355 -0.001111740277961006 -0.0028727534001730766
1325 0.0028261251382909846 0.013721835292276658 0.009820844462083042
1326 -0.007603783139059341 -0.010889006512024397 0.01619047277662057
1567 -0.0020652332959017632 0.005117728045894871 -0.00042582451067391493
149 -0.002967342629976854 0.005850326213700324 0.0013189784930314127
1168 -0.0018500463896838478 0.0073225558104235275 0.00441243360630014
1450 0.00031887921644836725 0.007615210805328113 0.0019210462688302654
1140 0.003535062454961474 0.007903312949994485 0.027529437831078203
129 -0.0012112391645898851 -0.002086675622864754 0.000500985611856885
1212 -0.014155738707480502 0.012509109284322474 0.01732105926123906
148 0.0007337961976169993 -0.007500774721602801 0.0067506628592351155
480 0.006655780677937617 0.0019667029720114694 -0.0006748091861387815
1235 0.009799948262142763 -0.0030500199771227544 0.0035106461954669097
1195 0.005931977899403154 0.0010990304755782985 0.0015799154547784194
1451 -0.01427198184988349 -0.003968008779365792 0.016290743356014808
419 0.01095766684493634 0.001486925747887887 0.0003187722688259547
1086 -0.018495972986379755 -0.02683084427208919 -0.025393364954203697
1620 -0.007062210367122558 0.01669066061389292 0.015716902388759633
146 -0.0025223457894661193 -0.0010709991221835797 -0.004451773768866316
1332 -0.012100067317309483 -0.02890418956991689 0.028057877564630976
1454 -0.00906413946584157 -0.016718615305175717 0.009404502174303456
1630 0.007653036378484432 0.0019447863918120843 0.0011207900757097518
152 0.00032169870512774323 -0.0034546080963547827 0.00042205871550167576
1266 -0.03659331177000341 -0.005818349192870248 -0.012411952149914335
1169 -0.007450910039492941 -0.014865078796288426 -0.007670019685402866
113 -0.0007082076567413218 0.0021455841620667882 -0.0024918590598292543
123 0.0021610239972946186 -0.0029943709499421914 -0.002765381361429432
124 -0.0034343969665778444 0.0028258817339615766 -5.549737451808088e-05
1335 -0.007690498938737698 0.007489104989180752 0.008979616491983188
401 -0.004252640388970213 0.0005288859361393562 -0.005953663973423607
500 0.0028696222194584367 0.005453168065685563 -2.4970692779597245e-05
1347 -0.005664914499395634 -0.0057019534438398495 -0.02010260271062755
140 0.0018128672314394257 0.0023583782825632406 0.0009750762213052098
141 0.0019651406205045403 0.003931169794438975 -0.009529260604837601
1138 0.0009170309709419088 0.005008229363529074 -0.004586448814854827
159 -0.003380442135231692 -0.0013662665678937265 0.0005183811066647586
161 -0.004004712869897137 -0.0010147984469210363 -0.00267729434742452
163 -0.0009367072213710587 -0.00034950487047114297 -0.0015573946573384247
674 -0.0024130445115747258 -0.005023544129033131 0.0014021594179136705
169 -0.0030651792129144117 0.00014290094115274575 0.0010772730023220765
1333 -0.0045346185341078 0.004967050156361471 0.004095951426280855
174 -0.004090816202184156 0.00028356464500888255 -0.004720354746471312
175 -0.003170983037560046 -0.004382824287910988 -0.003197188003886849
132 -0.004464502135876832 0.004104779184615187 -0.0035063917723626823
1334 0.002282512008030592 -0.022521528061218363 -0.030397511605554484
178 0.0016645130297815313 -5.9106321576006945e-05 0.0004113611199465613
183 -0.003103081331674839 0.0032148348562108476 -0.0012194219567559792
192 -0.002475675675885604 8.360213371486967e-05 -0.006519880575798588
196 -0.0011336077961909433 -0.004674221523170122 0.00026856447363811186
198 0.0035090320387101935 0.001435022210753412 -0.002683990261560493
138 0.0010260944928590508 -0.0020569962885309276 -0.0031267261129571825
203 -0.0008822396781874895 -0.00015986979885599794 0.0006808939296375086
204 -0.007128873029992896 0.007117858274268537 0.0001576575551230792
205 0.0025836244825662926 0.001335313369508629 0.0018955097705116498
209 -0.0026272753874896472 -0.005990572015700636 0.0002559608884950617
383 -0.00267103680808222 0.006078698275666695 0.0009435309468320592
393 0.0012114370424938436 0.002701186302196738 0.0004240339672890207
394 0.0008129004642603516 -0.000987029745425173 -0.0014659125033147215
395 0.005418983752714449 0.0012384603399162035 -0.001961497370746211
396 0.00030227161037988445 0.0016456451302217356 0.002141913652442644
142 -0.0048817187594310755 0.0009412903312983333 -0.0016561718036383225
1313 0.00396892228221749 0.00040347696847368753 -0.005446221845718874
409 0.0037982948471589504 0.0006682522212077621 -0.0013038639652025864
1494 -0.014411872136134407 0.010165344698999348 -0.00735216946966414
411 -1.5209941468479585e-05 -0.008477391310946132 -0.006530285288241109
412 -0.002118274390976925 0.0062940635955987916 0.006755908338780696
413 0.0008599512982234456 0.0009037082170491201 0.00044921783595767734
429 -0.0018768429922233357 0.003974303279626432 0.0010126849553526184
431 0.004333781007399192 -0.002563775554587776 0.005582781435643796
433 -0.0016562321195615567 0.005296552812834762 0.005076128697768098
437 0.0004851268261802941 0.0011849871664969236 0.0018624271736960444
439 -0.002537995110248472 0.002958837972584799 -0.0001342879407669986
444 -0.004718869949404902 -0.007391004292102843 0.003611922545323255
445 -0.003981474350764278 -0.006869129802703636 0.0018171864909088571
446 -0.005862807058480224 -0.005205814555151987 -0.0005799779423708315
447 0.001434505752625548 -0.003842572262411103 0.005408861865827576
448 0.0012143551901324815 -0.001201666343966327 -0.007337481930355877
452 -0.000979956926906705 -0.0005278425008441573 0.0004932602502498115
462 0.0032214174035395996 0.0015706643996366949 0.002702810857822489
466 0.0024728645239069495 0.00441774351150524 0.0011665927311585353
468 -0.0020052850827478163 -0.0019063213876546613 -0.0012766857369227106
664 -0.002521489497244621 -0.003288489372683937 0.00041843920353613933
473 -0.001343431378012102 0.0014003376576018085 0.0024013081508063305
474 -0.001245043676200622 0.00471124483078916 -0.002485467402324286
475 -0.005509226364847036 0.009611332537351388 -0.0044129188911526274
479 0.0025661815600879876 0.006423501928920828 -0.0001244412816223588
1293 0.009778718811484234 0.02186460425557556 0.0072506327855322945
1390 -0.0029055327821025934 -0.0008105670411667513 0.004859138850120996
1137 0.012069336111849502 0.006961442133471467 -0.015287412810832594
405 -0.0020749330055569765 0.00039398867562649866 0.006397903801875737
135 -0.0012569689555357953 -0.004108996758919601 -0.005688645834930072
469 0.003496876429092824 0.0007037533414206866 -0.0003862995132276487
404 0.0019698530543359612 0.003867312694085863 0.004252978780979242
1288 0.0011979152511837063 -0.001232132140121607 0.002009606676190574
1289 -0.00530028589961944 -0.026839111115256366 -0.01909632010252458
1290 -0.017451549768791944 -0.013364419626688618 -0.008339448394859872
1291 -0.0025514501381945446 -0.0013195147451537917 -0.004211535558154828
1239 -0.017079395729313565 -0.02082551514714801 -0.014338894635800516
1631 0.012514495242704662 0.0053351771272209265 0.015842035598594748
176 0.005458297727118891 0.0038053532054212603 -0.0016608344749830081
1605 0.020434807605075864 0.013299854273826088 0.008941313968643935
1265 0.007732032595256168 -0.0005474162811281686 -0.011291787782690075
1264 0.005295497096506874 0.001350437794235675 0.0032708913467850245
1492 0.0036372363070534424 0.0035911857667669943 0.004109158149634099
1345 -0.0003997931879978935 -0.0038295278631429314 0.0008358071063572202
1534 -0.005034097434505735 0.005593594615809275 0.002379412017077847
139 0.007628604960575222 0.0076260570236166125 -0.0028468257806398027
1292 -0.027086347552820432 -0.011285478881571635 -0.024248847307150382
716 -0.00158160422513238 0.0014804807534317542 -0.0022207878396180805
230 -0.0011098768726893154 -0.004462300679138717 -0.0038603926162111128
1493 -0.008289809239895626 -0.010838913892058159 -0.019227875018910375
483 -0.003716843649069067 -0.008664762744942968 -0.0005951416968135286
1139 0.005520988846219037 -0.0158966397413953 -0.0013453290640744223
423 0.0011110028633871843 -0.0040869409137526585 -0.004414424690743351
1391 -0.007302100236151626 0.0007619376369165297 -0.0039550277220571015
1177 0.0028450753480081504 0.00363534796469345 0.0020645375846799576
1178 0.026415212958996067 0.007373773187157383 -0.012192530515005386
131 0.0011589034061360198 0.000880485145207474 0.00018636692014090708
410 0.0009385909229770778 -0.003593273645593245 0.0012201343825897681
177 -0.007106805791697163 0.0021463256196066235 0.002273788552149405
408 -0.002357731601866748 0.007738997050088214 -0.005387575172189566
166 -0.0009947720669050788 -2.6807243339883524e-05 -0.003002802180379017
173 0.0038817759041782523 -0.0010657215775741042 -0.0032954515623973535
1372 0.0023343332359458025 -0.0010615456904395208 0.0035913604699616005
1383 0.01865739826505562 -0.003155342188871736 0.01758031062380951
195 0.003346758014480792 0.00022825421836420763 0.0020738774556022127
202 -0.0031413810787081224 -0.001555260917586033 0.00011622817901348439
511 -0.0033656533888308544 -0.0014496876504526363 0.0016258345308195702
307 -0.0018558530128059514 -0.001977839248490724 -0.0056699454385559225
219 -0.007833022875879538 -0.002435821218102825 -0.0007810535441035451
220 0.004292023590307444 0.004108157658086004 0.0023542919348222787
225 0.0071023924374947174 -0.0012599337677665506 0.0007087644337649885
226 -0.0029367483925916 -0.0020489070048350577 -0.0036574813781624902
227 -0.003319211241562906 -0.0034727456393169815 -0.002147455297479646
228 -0.0016782492277693862 -0.0015662950117130388 0.0032844885914344755
231 0.00046268238619348275 -0.0009829842177843373 0.0020566257674472315
232 -0.002906898162218094 -0.000225419477101712 0.0035975785622929498
238 -0.0010603136207770253 -0.0073885876638948465 0.0013150156118045615
239 0.0007302244286976333 0.0009148358220109779 -0.0031555546462769036
240 0.004320624108474354 -0.0034428053039865063 -8.00385405943634e-05
1163 -0.005425862653278015 0.0002876266656208468 -0.00477003268387733
1236 -0.006220132205894663 -0.0034260570840092533 -0.01134630771282733
1629 -0.0033480414051744907 -0.0015435191287280154 -0.0012545912915111726
257 0.006345685425438892 -0.0033047469072068547 -0.0024420749275065826
258 0.0019979979242024117 0.000834292108054428 -0.0016159610989703614
259 -0.00035022940903129296 0.0059408977814193195 -0.003459637284545636
260 -0.0006952736775202138 0.0019269127626344344 0.00511588492762372
261 0.00225634911841537 0.0007317761693050679 0.0006230783584933051
262 0.0014681028070354445 0.004879805441686454 -0.003457199949982857
536 -0.004142921947577847 -0.0029072389812835123 0.0001991755210653559
264 -0.004024003968350046 -0.00540196015019174 0.002881869523271683
263 0.004512719375168397 -0.006216568948312496 0.005971034033518947
266 0.00038594377669035637 0.00017341226719996171 0.001779108711415499
267 0.0001847702782381954 -0.0083087656208065 -0.0022781665453291532
268 -0.0025495173133212143 -0.0033769900184956302 0.0011170118520028396
269 0.001576823453809466 0.001391559368999476 0.00021773516610757473
270 -0.0005006082388236113 -0.001085295668413172 -0.0026847496727169856
436 9.485280760499906e-05 0.00014527505878396166 0.0033834715515376995
443 -0.002423553381205781 0.00027659673404936 0.0017079841250871928
1152 -0.002296314165974832 -0.0007621509299505271 -0.004906297337918897
459 0.002468830445446592 0.0011183685865613334 0.0012033452605748278
1542 -0.011132073608323583 -0.0287836598077381 0.00367348480435727
465 0.0007755240454714831 -0.0009391935228748579 0.0005275359060243941
472 -0.004937277441905032 -0.004145079678296296 -0.0004695965812290016
458 -0.00026329339832889916 0.005399382329080505 -0.00025946000094309634
484 -0.0004602087602032121 -0.008499066337981321 -0.0004088281495786166
489 0.006692453361846039 0.0014104729494836253 0.0005061097797940439
490 -0.001864460701430417 0.0018198938920846502 -0.0026728575697178244
495 0.00270584176169647 0.0040606645302519164 -0.0016789022528635655
1096 -0.005360632671573059 -0.000597187815339719 0.009781994914277349
497 -0.002795480482858674 -0.002401130530471463 0.001014231814294201
1445 0.010401429863974269 -0.026603306129354645 0.023885842457328332
498 0.0023150520626536303 0.004491146812235699 -0.0002645730776397042
502 0.0011147592837237466 -0.0029728697074312286 0.002477451271132679
534 -0.007548430036221133 -0.0035135441624162935 -0.003188700819470126
510 -0.0022656766527771243 0.004770776037231808 -0.0016613374158501286
241 0.0032927693429798573 0.0045622041951825735 -0.0015163490253719653
512 -0.0020221691456996063 0.0030078503044536856 -0.002003689836925918
1628 0.0011856627221396325 7.73849587613042e-06 -0.009112453222403796
1446 -0.01852521686164865 0.004599409085209084 0.00022752238526874138
529 -0.0028868079088449007 -0.006036174637547564 -0.0032629436571673426
530 -0.0027161671144748127 0.006609548648424807 -0.0011342573882754594
531 -0.006865044903024648 -0.0010859360305156942 -0.0033759078804885306
532 -0.0009034294840439071 0.0020156404650398196 -0.0049571331634400305
533 0.0035094590106813255 0.0030715514537933025 -0.00030992962976096074
1627 0.00042150703605773357 0.0015304283789509287 0.00554456134263159
509 0.002904219200000554 0.003045716550438634 0.003204232959518175
189 -0.0016729722663281921 0.0029106126212299585 0.0034559536544995473
537 -0.00770459759600601 -0.0014721467529323416 0.0006168164635374442
538 0.002239347654791987 0.0002606387372209048 -0.002086281307323334
539 -0.0007981590727085768 0.002346233240121025 0.0054186945462778155
501 -0.004977246809469932 0.0005202250348896384 0.0013821595520802645
1114 -0.004901774549318456 -0.005099463280691718 0.0039783407364035635
1115 -0.005362334033527583 -0.01575276814918386 -0.015072378163565473
1116 0.00014660600664151112 -0.006228188031504143 0.004931928087373473
1478 -0.020821346068388886 0.016534878840342427 -0.0003415130433712183
1593 -0.010808667603915953 -0.014542872309967543 -0.01948077006928181
1162 0.002061058405598894 0.0031542761279955765 -0.005010345819253
1479 -0.01009739282023545 0.007301748791395703 -0.0003524542777081034
1477 -0.005097798841086138 -0.0009018644397317086 -0.0016524087462687865
1430 -0.0034222489187395303 -0.0100602022351245 -0.017546465844588327
1080 0.002862088849188621 4.187713394744435e-05 0.0027288704852257216
179 -0.004781578542793006 -0.007318567378991326 0.0013354619489720266
1443 0.004092107872795575 -0.004026275123530569 0.0176735966576787
242 0.0029237777864731212 -0.005987896656395502 -0.0039141973256776276
265 0.0005167195869773943 -0.0028669593201820502 -0.005329881266476632
214 -0.001635181363465829 0.001114536450701785 -0.0020924792186001817
1098 -0.007266302294149052 0.019048617487356877 -0.010905440510368444
1373 0.018600685131323295 0.0027828180127870083 0.004950896070693428
485 -0.00048228387933631363 0.002747358869166356 -0.0007520097339965531
1201 0.0045573593688353125 -0.0005996326181345086 0.0012385667356277614
1444 -0.0018944429198159611 -0.010216301178515077 -0.0001833373274434169
535 -0.0019232774919088703 0.0016464016860216857 -0.0014145674613689195
1592 -0.005579240864558824 0.00839841331756383 -0.00011563985160112036
1202 -0.020553054484497166 0.014618564829179427 0.002573580646095249
1260 -0.010634179590475678 -0.004615339027540489 -0.009890744275885283
1067 -0.00025257325000367696 -0.0029933008239191143 0.00026637695617275363
1421 0.017454654980066306 0.0003459232509076504 0.008096220659008273
1569 0.01016531673681685 0.00907371987989933 -0.026102956835846267
460 0.00047374176117027505 0.004137749578944016 0.0005402146602642254
853 0.0013867486215329104 -0.0017549999170778585 0.0004315583622075414
1352 -0.0053110619786588984 0.02136613770984624 -0.005652940365538677
1351 0.0009948998854757568 0.005002434798160865 -0.001677427482325586
306 -0.0063391704317855326 -0.003672102455635032 0.0007644168424492338
190 0.0008189144479023124 -0.0021833336559198085 -0.0011873649949844807
37 -0.00521550723161176 -0.006273004454671346 0.0013405317588780137
720 0.008775685166496378 0.0014535945042283118 -0.0037313267024981136
1420 -0.0033527858492873376 -0.0022150598265929496 0.004818511811409775
180 0.0023618101956538427 0.0022520516811295787 -0.00327384384429416
494 0.0038112354973174807 0.001585630839913182 0.004336004356460934
182 -0.0006010329220831711 -0.003412461857198961 0.003954653345593063
193 0.0007388336245143085 -0.005274052507531595 0.0013633987996174747
200 0.00032985934726849223 0.0007539700348579886 0.0022630418136071967
206 -0.0073111378758192605 -0.004224009438712529 -0.003960168708871759
207 -0.0011519278789200525 0.006312634889888117 0.002430744423224998
1381 0.0037741352659937774 -0.009647806958214477 0.0012660867986545696
217 -0.0005902538533137753 0.006771410912745587 -0.005160983279315379
224 0.0005300871656326486 -0.002458701007471782 -0.0007121121403922373
221 0.00229731053413506 0.004750893753941755 0.00042333120702192
222 4.770323212127589e-06 -0.0015579017491319776 0.002521537489547855
250 0.0021866555623893578 0.0006830539428647961 0.006134623615025251
5 -0.0030263924122638087 0.0022001098994872932 0.003315427358998058
229 0.0006838400812888199 -0.002004490708340554 0.00439390212384325
1176 0.0010070145265297832 -0.014575557292691489 -0.011152940680373445
233 0.004113855799049041 -6.991642145941059e-06 0.0001664724230499576
234 -0.0009070206750194635 -0.003972136197548403 0.0024504231492337644
235 0.0004343869721084144 0.0022412276466832904 0.0008471856558596965
1245 0.0018368413563592991 -0.026706892848846406 -0.022227550210446395
1230 0.0010576550958855374 -0.012552722395929947 0.002228165419825907
243 -0.0010233953713715007 0.0008185277301016667 -0.005860143644540951
244 -0.005026914663256262 0.0024666018029339356 -0.0007075325864832932
245 -0.0019165152421876724 -0.00260286247626501 0.003278437575680614
246 0.005161729158591061 0.005195331206526531 0.0072524958092357854
247 0.0040877355808439896 -0.002958517853830292 0.00446056375720167
248 0.0031374383302063672 -0.004627514131055641 -0.0008223315279832069
171 -0.0011276337782583914 5.284786107649814e-05 -0.0025008612232174203
523 0.00013043107309892242 -0.004417800438628047 0.0034429184849051994
499 0.000609639205564539 0.0035521451953024036 0.0008477574440355805
253 -0.0042354173649675 -0.0009682911124975264 -0.0005313440095382329
254 0.0006099922361683975 0.004828703045919019 0.004471019517502806
255 0.0024081023118350474 -0.006117667016165578 0.0033813645464557686
256 0.007494565981148291 -0.0019989147571934825 -0.002248590234548099
434 -0.0026064501269896295 0.0030159941430717833 0.0031717324610539637
440 -0.0010840779102078307 0.004701299001205893 0.0011994844574669005
450 6.90071093943032e-06 0.001979136393164829 0.0015467803228589167
451 0.0025399935129866423 -0.0026952119620243203 -0.0018915868271660989
463 0.0016172067913036911 0.0029893522486672862 0.0016450175693425953
470 -0.002168933690445315 -0.0005314551057978955 -0.004153921042296594
476 0.007402375697242142 -0.002650429413509832 0.008178497868137314
477 0.006484306397618857 0.00048188215333656696 -0.0010011868676262157
199 -0.0030567629548047945 -0.00025732105937912827 -0.0021839877213570844
487 -0.0015482665485449232 0.001798907317118927 0.006754365508431888
488 -0.0015002892172460837 0.0020147866274888415 -0.0028611544411109714
491 0.0011373420961716244 -0.000578865404093483 0.00016518722275978928
492 -0.003974625927510093 -0.0008081845403681862 0.0009697184763054734
1602 0.010900062756987731 -0.014944273970108538 -0.011657959472779545
758 -0.004795647491409936 -0.0037133035982640896 -0.0027475863451691873
1435 0.009807032926071603 -0.001457468470609017 0.002687518202904112
1422 0.0022300906722784344 -0.01472183038643856 0.006814282471439451
503 -0.0017840742118198076 -0.00347626575964448 -0.0037866792259750623
504 0.003956241743794208 -0.001193380990521398 -0.0028087752211988976
505 0.0021764002543117156 0.0004238270859777025 0.0004834575089493162
506 0.0003129039373652014 0.00011397615172663753 0.001324070618874834
1085 -0.0134726828381365 -0.04244990679105714 -0.01937371518839901
1540 -0.006693374191927406 0.006333215816972617 0.001231250575501986
513 -0.004631686231981878 -0.0022267477311399913 -0.0014512055221645173
514 -0.002338169101171613 0.003788290768347645 0.001420191829604205
515 -0.0041330533573017995 -0.0019564538371654653 0.0018437568381282593
516 0.0014679027930355676 0.0066718488988106546 0.0005761356479635836
517 -0.005936200430083997 0.005119508226656394 0.005916918166005512
518 0.0040397824378851505 -0.0011031682524158574 -0.007834144893554879
312 0.0007499721816839789 -0.0008966276380360736 0.0010015715875830984
1505 0.01193255268308625 -0.007099202651184945 -0.01068726977191033
522 0.0017045940095219848 -0.0014234852483723474 0.004574203766484506
223 -0.002097709004507855 0.0005583053865733773 0.002151680058053831
524 -0.004549691729733233 -0.0012424387726984339 0.0038330585158454973
525 -0.005198622184429084 0.0002351791804092757 0.0007385768797791298
526 0.0032522256500171383 0.0035106429854654918 -0.0019595933263006965
527 0.002497922433580797 -0.0009839465716794012 -0.0037991625080295082
1175 0.01181628941681561 -0.004403126909595192 0.004929487567575461
1213 -0.0015208863767320565 0.0040475825232844705 0.001967191882840877
1554 -0.00434642820749268 0.018368058264193538 -0.022584220974508976
1434 -0.017961640135945214 -0.00828530359842536 0.0015963494160098686
1097 -0.012950882050480058 -0.025730799442753673 0.008395252536460833
251 0.007918991281892707 0.002022963599488089 -0.00023898916074278857
1174 0.00032157770884929033 0.006106073062989676 -0.003241323025183352
1215 0.019189823289783293 -0.00482123624304498 0.0011363678249448259
1357 -0.0011652854907157467 -0.0004173074792382552 0.003974952418060554
1432 -0.005214910877480189 -0.0017080726438907996 0.007252928825505234
1431 0.026866843671327526 -0.005626170559374377 -0.011856528364437577
1228 0.004505432875023881 -0.00990739510883494 -0.0015748452019139303
520 0.005449190979699647 0.005532096328352094 0.0018741104642416356
275 0.0007114904627571067 -0.0002554037426514723 0.0022270825082672616
1504 -0.002033376673610739 -0.0018357319948044556 0.0019212429603807082
1433 0.005254991331111309 -0.03013399402986832 -0.012638425274557785
170 0.003478210019096109 -0.00023051167555013943 0.002158275624663967
1084 -0.008644255536441662 0.005275495940119768 0.002128208205697627
1229 -0.03752605837716614 0.012310613499340121 0.003001162027787625
208 0.0020422200474279405 -0.0005183450382805167 0.003695408273942026
1506 0.03351216633653009 -0.006880395439877644 -0.01242116053216667
213 0.0028803146758990747 0.002504688324116649 -0.0007574302820579306
478 -0.001345170985908775 -0.0013668311219166903 -0.007794113804218348
1359 -0.01620790124782607 -0.010711409156649088 0.016542239528152786
1382 -0.010976186407142595 -0.004738462921110368 0.0067630270741723605
1601 0.0076423910793909375 0.003504802347840069 -0.008835082668992222
1040 0.0018664403973183497 0.00111464448704073 0.003441040435046025
519 0.0022403227392961307 0.0051268178824186205 0.002961625802007979
1600 -0.007256543253777779 -0.0074766077758662295 0.005386733011029031
507 0.002133269431776187 0.0012851606561254867 -0.0033171832887391476
1166 0.027949782075639532 -0.0062124589695423055 -0.02815946703002436
704 0.000909480282593917 0.005539274531118792 0.006827348860791798
493 -0.002485523556920121 -0.001598508147959927 0.0014781425040129301
249 -0.001403362016620588 0.0011884653505897032 -0.000617364428880218
1358 -0.016123792208349027 0.012162397656853714 -0.023703007836696207
521 -0.005480681679572523 -0.005718917245706206 -0.000947199588972497
508 0.0024751168156743734 -0.005485844412443608 -0.004440287069082652
1374 -0.021159667946243937 0.0007755177835177856 -0.00752947383349032
543 -0.000591659474360484 -0.000646431569150949 -0.005161338647851169
544 -0.0015509656081178723 0.0014351624680826185 0.004396138447285931
862 0.005805227129217075 0.0007498767446721309 -0.0019381289185009976
551 0.0023542534883871456 0.0009645132595940725 0.0026168033571179142
552 0.007641967952589176 -0.0008751976186401996 -0.00047871867916212876
1109 0.02753896560521286 -0.01437588932470706 -0.02016547936234178
566 -0.003632828783914218 0.004304030164965862 0.0018001762928690232
1110 0.003383655295306552 -0.010804280617496206 0.02828504775429935
568 -0.0024986557457965376 0.011521412874567458 -0.0004699530835558666
569 -9.167061130379778e-05 -0.0009002721191639169 0.0011959327342338055
570 -0.000355532542474508 0.0011902518418094737 0.0008594974363899833
571 0.004861043395716413 -0.003283323770495954 0.005376976647033544
572 0.0048185649851677686 -0.0021285848229679236 -0.0009153178756869691
1476 -0.013191877610878998 -0.002489251676389486 0.01617006293428197
574 -0.0024620602701349685 0.0055715649707847705 0.003218709689481781
575 0.004463570202679239 -0.0046480860206521155 -0.003539198906242953
567 -0.0036849099224618756 0.002863057445710442 0.0037213629942937435
369 -0.003948067211214268 -0.0008060049643062852 0.001850863405313155
580 0.0018337396777843502 -0.0029226880934387074 -0.0015448851049993221
581 0.002519674201415463 0.002287119414178233 0.004103455482005416
1341 -0.005290461055422965 -0.009621106040370687 0.013452007616610518
586 0.001983411619126602 0.0007304268052057685 -0.0003669620586211132
587 0.00024407771644687612 -0.0036643319662075387 -0.0022155987353035386
591 -0.0017658061706153458 0.0016771759599383345 -0.0027639472616388786
592 0.0011275253845215996 -0.0024868671118764376 -0.004206476579646126
593 0.005411762982912348 0.0063053149911065035 -0.001456465623053877
594 0.0011029975237253666 -0.0003636686339539001 -0.003389511294988954
1546 -0.005866488478305925 -0.004780896248712219 0.002607535598215947
609 0.003175063299612051 0.0020848446926772335 -0.002385965701284589
612 4.935185723354379e-05 0.004206452738338333 -0.006761305290143903
620 -0.000666318727745621 -0.003171164910214364 -0.002401723326294437
638 -0.005888563857951844 -0.0015824060269480726 0.0030290012519071396
648 0.0019342117167470917 -0.0010563591203901516 0.009046323002427255
813 0.002496845733681037 0.0003105345135975333 8.443878281883114e-05
814 0.002395784151802139 -0.002104844759915737 0.007064384493347077
1108 -0.00017443656350473304 0.0007557252431391766 0.005380255921001113
820 0.0008345495218921475 0.003350981227550968 0.0031309312929733843
821 -0.0002130565195502899 -0.00200502228585106 -6.384194444766252e-05
822 0.002262636752919746 0.002952469641891668 0.003321765888793538
1401 0.02389737225955926 0.007962140233430993 -0.021989607322259304
836 -0.0015338620824864153 -0.00035716869122918163 0.007496417523178672
837 -0.004460123692200096 -0.0022871423038388914 0.004085200636314736
838 -0.0034498461226017646 0.00589204733156887 0.0023830638010543027
583 -0.0021288290867308196 -0.004131264196981203 -0.0008043058686266671
840 0.00016631130397067688 0.004365698743601548 -0.005808866352753225
841 0.0068034573584694205 -0.002468871629399664 -0.0015589772316348016
842 0.005018281485044737 -0.004361065589974168 -0.0038814955516977357
1125 0.006112511435165231 0.009720728819027951 -0.019005917805651574
844 4.078186683098561e-05 -0.0031901531271785024 0.00197896198777001
845 -0.0028950350990369854 0.002670384686974929 -0.003565153282909996
1365 -0.006011380663872697 -0.002751504160254977 0.0116499805621009
299 0.004481250018434096 -0.002884847912344258 0.007604450422945213
1123 -0.000933690597109485 -0.0007266415388042996 0.0012960678928653003
851 -0.004334871304724843 -0.001548596698222641 0.0009967504923953795
1475 0.01587113381943549 0.014800321235720547 0.0017969618660844228
1182 0.006535555564162142 0.01841119136073064 -0.005154880089903102
857 -0.0020998378019586447 -0.002850992935046236 0.0032841425103832186
861 0.0028207469869911956 -0.0009107058064504041 -0.003637084769392225
1488 -0.017888676000096384 -0.004697695378112945 0.0057530712906276975
863 -0.000934795770977414 -0.0013551300757992468 0.008120234248427772
310 -0.0023681046513956937 0.0004538754391332508 0.00046189546169606314
868 0.0018617700321162092 -0.0020402996978150663 -0.003358083157068726
879 -0.00442194381606821 0.0001223756636017733 0.005778456485910452
882 0.006052663890362541 -0.0066324934964924745 0.003704136468633371
890 0.0027104353029226464 -0.0003387375039208374 -0.001436930440993466
1408 -0.0024390615396986735 -0.004323616110952768 0.004779099410949291
918 -0.001249466856189183 -0.004568640189170538 0.0042438253679922735
1491 -0.023587677330524862 0.01592113676721238 -0.012487793470987933
57 -0.0007543425195715228 0.0008471332843837231 -0.003775217643977968
32 0.0021130064929120334 0.003009841903719365 0.00036215572223549544
1548 0.0016043132029252309 0.01032902891528077 -0.0027915345516250547
316 0.004412820226781055 -0.0006582183657379512 -0.0013099744016895208
1339 0.007657807312246929 0.002046883173984056 0.0042969809455339816
1474 -0.001956031895762176 -0.0015552391966786351 0.0026003975063610342
1486 -0.0022499495815156596 -0.0024794218411302465 -0.00187383441412329
1481 -0.020270433165997925 0.01257820808147084 -0.024479447233133875
1547 -0.010226375195508286 -0.01160861813231343 -0.014958169459271493
1371 -0.010398490462006119 -0.0059276454531198945 0.0008328254232377361
1490 0.015683483630956774 0.026434867898989335 -0.02698284248413433
1083 -0.02462699171254845 -0.01236687051633335 -0.009469441861149442
1487 -0.006162095597928302 0.010938753431784343 -0.006211341364511174
1409 -0.015191277280650117 -0.0008419916816527724 0.013249871154524178
1395 0.006922780026127982 0.013576003363713186 -0.0007609690082350691
1489 -0.0060100772857088255 -0.004667432921959153 0.004606403335755664
1126 0.0026284842168591924 -0.0039033554048208173 0.007742627353410025
577 0.00527572135145396 0.004136388412905591 -0.005771737169571474
1370 0.0026275313245645413 -0.007704811448679481 -0.010837834566647522
839 0.0022135344545389972 -0.0014288448236307448 -0.001597602996510316
1128 0.006828339637401297 0.0004381534113288573 -0.002777635071846354
797 0.0024113800299256066 0.004784750579196731 -0.0031896027295484426
1204 -0.012258435856621033 7.627600667737457e-05 -1.3189433226808121e-05
324 -0.0007729861136537089 -0.006847118320464366 0.0018222640996905055
847 -0.000133491121523474 0.001240193264408819 0.0011065453201280385
576 -0.002300976491831782 0.007078296159588091 0.0022732218808166394
1363 -0.005415519439891476 0.0029965234896346823 -0.0023817396559893053
598 -0.0014164281296477144 -1.6632783847702975e-05 -0.0004627384484112136
323 -0.007183450801943099 -0.004693674579874853 0.0005909377539352968
830 -0.0007218911828117757 -0.0004846719151062053 -0.007687900698162634
541 0.0010168440662129204 -0.000197502932710756 -0.005586162893494987
542 0.0010590602824797036 -0.003868734002219173 0.0018738316047466064
545 -0.0028279893966248015 -0.001220221120102419 -0.001653628846871061
547 0.003883154865444922 -0.0004507589355373723 0.0001788075321392196
1310 0.008560847036966078 0.01101268803686188 0.025636893144074826
549 0.0013064286759872116 -0.0002571450522566033 -0.005712577176852598
550 -0.0022950859065728637 -0.0026426641199353597 0.0028354010942531305
560 0.0018775335963952644 -0.0016019133520808351 0.0030248288885712637
554 -0.003778204272073736 0.0007814171974784425 -0.0028767266858423096
555 0.003913724158694424 -0.00017961442983841576 -0.0039296379323470465
556 -0.002478138180269619 0.0046174054897893035 -0.0043563056117156855
557 0.005230936227573954 0.01018634498720382 0.004970176156701103
873 -0.0010662367683527756 -0.0005098586442045872 0.002655636750992224
559 0.005090857435118599 0.0024969590297240925 0.002071178863920745
561 0.0010445327165671018 0.0021510575289543864 -0.0014552191782140128
562 -0.004569339198492366 -0.0013831559560686213 0.0010663021171091753
563 -0.00012114759973078443 -0.0035145292582565452 -0.0014120902754215456
1309 0.0010230784036323573 -0.0015490117609546418 0.0030639080614951178
1111 -0.005927205755168441 -0.002728012697531918 0.004587134200149583
578 -0.0027880713593107817 0.003605874431549348 0.0025325995840270307
579 -0.004129358107314904 0.001123779450419079 0.00012699049191266411
1410 -9.30905150278958e-05 -0.004454585625167849 -0.021508348778307006
584 0.0003553970261672024 0.0029341339443727907 -0.0036421608038850334
585 0.001623367771263231 0.0051698611371329695 -0.0029191997227574736
588 0.0011821037494197273 -0.0014905574604167351 -0.003483083522403431
589 0.001107679882839946 -0.004896235339606307 0.0029072080023959603
590 -0.005039279087143049 -0.005076489730517826 0.003997612523515546
558 0.001577977805086264 -0.001985825186072717 -0.0034833848787680644
834 0.0010891334894447863 -0.0018605329670613416 -0.001928124871290869
1094 -0.0038915600431973342 0.011191456427915672 0.012095692544784117
1095 -0.003671723817886953 -0.0057071442025330345 0.020284009208321765
629 -0.00012604714064941717 -0.0027219510364460374 -0.0004654853565483063
636 0.0034425638736950382 -0.0018746889960000253 0.005329537256215825
811 0.00033928188545594227 -0.004435080272851626 -3.900697853401512e-05
812 0.000921146793979881 -0.00023588675198999283 0.002692555256708514
1093 0.006287396538007124 0.003819160122865238 -0.0011276688312270677
817 0.004958558909323572 -0.0009513570054204384 -0.0004098202236425978
818 -7.959516502985473e-05 0.0020694138768561957 -0.006551417185245066
819 -0.002067008534279908 -0.004066067158709489 0.0063115046552993685
823 0.005094797396379859 -0.0019260279108829297 0.005145988802664536
824 0.00015541987922036585 0.005026934992169821 -0.0010997161056001603
825 0.0012128567255626182 0.005411075132982667 0.004596970139899244
826 1.6955545283329875e-05 -0.00040854256722006017 -0.0015228358906420967
827 0.0015296023901464858 0.002311803246805741 -0.0049232400328953095
828 0.0010927222914015032 -0.0008802731896089377 -0.0015032321021812237
829 0.005527672673882946 0.0025337390653672022 -0.002031399814963473
831 -0.0007420171253365814 0.0003056371479451718 -0.002865981015876137
832 -0.0007319551978549828 0.0017779445100502664 0.00014722600165467613
833 0.0060226297471620525 0.004479881471701116 -0.0012739292641271952
582 -0.0016245611189648213 -0.00022511246158983666 -0.0024897906166140757
843 0.003221157813480627 0.00317143339788669 0.003278708354979265
848 0.0004104246119767551 0.0017778836039203348 0.0015768101451884985
849 -0.0005893313009986965 0.0020742470445733793 0.0015802102519982997
1311 -0.000595237100234797 0.003955274814981212 -0.0005093903743995571
854 -0.0021411967227324973 0.0005985956017391619 -0.00010029480690529921
855 -0.002807085903720444 0.0019905382315333195 0.005834413541407903
858 0.0005928198066625849 -0.004273993746559159 -0.002840629204984868
859 0.006057681095134757 0.0018913366062028882 0.002156936730907596
860 -7.654542237181326e-05 -0.005119441486355857 -0.004950703565518507
867 0.00018783116914711156 0.0007537134794878533 -0.001971022894110738
1279 -0.000927140706863599 -0.004596127621672334 0.0023270949109227695
877 0.0017385719510005428 -0.0004673837255119141 -0.001918248114309895
1047 0.004933836719306899 -0.0017647597847122705 -0.006268726580742729
899 -0.0020554928966949786 -0.0019032640271395597 -0.002748302982902922
907 0.00115742453238834 0.002366280408172212 -0.0002386656316756564
835 -0.004438603118170803 0.0021804375544961347 0.0020967665549177315
816 0.0021790417445929017 0.004305882519975432 0.002287747855357176
1124 0.00744707421913566 -0.013614754611574494 0.023802875081879372
564 0.001972659395575848 -0.0034383730312004296 0.00497617885242277
889 -0.0016667689029679592 0.00047454517011498903 0.0014523572338296898
1280 0.019756711044922052 -0.013749211129511985 0.0229676315988866
24 -0.004143826605938496 -0.002902343032255756 -0.002101153723215812
789 0.0031154203793466177 0.004419637048869791 -0.00266578947238089
1570 0.0014661970124805201 0.007532064012428415 0.004832260437851487
1141 0.0019462410633446338 0.0027117123827691317 -0.011112876364283363
1142 -0.016742533921579546 -0.007596310913005538 -0.003309073730088219
1143 -0.009683504683517917 0.0023369371878151062 -0.01615347243284479
776 -0.0011771435965566 0.0010393153632372411 1.3800865783374506e-05
13 -0.00612897103055024 0.0031203483703718454 0.0022295055115312714
1369 0.00291400944253695 0.0002643682292142951 0.0017489150955013622
1127 -0.015443467501904354 -0.01137958698234587 -0.02829709770149596
252 0.002512328202369871 -0.0012158079345475801 0.004390022314077422
1531 -0.0011002147761926169 0.004593388839636212 -0.003129394807846401
1469 0.0063979447705719795 0.014337500328466235 -0.012703027727192617
1281 0.015770496546230663 -0.004708366421621225 -0.02128857875835164
607 -0.0015968500698648662 0.0011553109279833663 -0.008881793758983365
1532 0.011975663781455669 -0.008852331274707142 0.0026242970203545516
777 -0.0006204897604562343 0.004063202021027845 -0.0001686974031909537
1480 -0.003987263669516869 -0.004466770046152846 -0.0023016327177993543
596 0.002435053774231736 -0.0007299734368959593 -0.0003968537511093705
600 -0.000839777737665166 -0.001280257740565191 0.0002701388637713974
601 0.00634750945985618 0.0025911835807276764 0.0011682207157036886
1638 0.002247685325971122 -0.009103923445005971 -0.0017847496612444144
608 0.007327294273458777 -0.004965113920561498 -0.004281963181135677
1555 0.0038654324576792923 0.0031327517868011325 0.0016910283374563994
611 -0.009452400094156295 0.0015362351713147603 0.00036515233059741093
616 0.002222014337492208 0.002516296095271857 0.0015999783520693957
617 -0.0015819013285840846 -0.0027951195047234414 0.0004626202053853245
618 0.0005291625675212751 0.0032171795264373617 -0.000856540605402188
624 -0.001979173282796143 0.0025928751247052155 -0.0008088736879614947
625 1.8447279295235256e-05 -0.0014120658114949438 -0.007382123359978991
626 -0.0025379912737452416 0.0024812720552429618 -0.0036873283486065357
627 0.0020608079068109714 -0.0009612827352672722 0.0014126648759713383
637 0.0058113059422331675 -0.0027036658186086124 -0.0008055019498338467
639 0.006370498587184797 0.0027824041553415153 0.0021420545042738514
640 -0.0023511527348160123 0.003018730834357765 -0.003436206877816832
1081 0.006755739670768022 -0.006994297291453738 0.0035961402808268855
1268 -0.003112001224096376 -0.00423571833608399 0.020067253141569773
643 0.0028446897388044717 -0.00018613330255772836 0.005551403558269379
644 0.004771211851271284 -0.005111675571712496 -0.0033364952702239392
645 0.0033275891275844514 0.004684137241159466 -0.003546977495278083
646 0.001229672086582273 0.0055820330306002135 0.0016225839573261282
647 0.003080492199820951 -0.001371285488031134 -0.0016228603824359107
650 0.0017143907180656788 0.0007831545436305445 -0.003145067911143982
654 -0.0024196231865180546 -0.0008005675338398213 -0.0035548576004847316
655 0.0002070959973271126 -0.002672435063177149 -0.0017093122853494619
659 0.0015330462282843094 -0.005089704941401195 -0.0025306802561006147
888 0.00167236295003199 -0.0025109494885479067 0.0024593613040479944
665 -0.0005694970508353038 -6.485708237858043e-05 -0.001305702379032133
666 0.00040302078826407096 0.00013810982057395314 0.00088159626877173
1267 -0.002362144596140561 0.007295496765844033 0.0027317660691235073
370 -0.0010106719394194056 0.0005566064770116245 0.005065077256566934
686 0.00015715801414880392 -0.0025907178415090237 -0.00030049659150343974
689 0.0007126508185846526 -0.008142727563340474 0.0013328068308444494
690 9.957427623366712e-05 -0.003054194716295388 -0.0014950711049919112
697 0.004427936331893374 -0.004127950737749279 -0.0006118507433225071
698 0.0036252695308762084 -0.003921147417840334 0.0008261014328454845
866 -0.001754052411489794 -0.00013327726303404157 0.0008738526025389656
870 0.0013847983702071865 -0.002529282018792865 0.0002307915774653324
871 -0.001903888431676182 -0.0019024428982238931 0.00394298229428372
1637 -0.0019309245727938305 0.002692309698525674 0.014113611750884764
878 0.004094105382788615 0.004289692711630398 -0.006118455102008452
1564 -0.014238554552324478 0.0035509413672407345 0.0007786209059126932
881 -0.0036875464051959886 -0.003980303018700554 -0.006708033544355221
886 -0.001500998668575442 0.00329285977009347 -0.001283647265283274
887 0.0021263368490973445 -0.002719129829965944 0.0012376546579250705
660 0.003001307315383761 0.0007286031735510992 -0.005388621391743091
894 0.005473846486983663 -0.004693649439552566 -0.00046958590940346373
895 -0.0007832268200281873 -0.0007382085349725387 0.0011196338774458429
896 -0.0005810534609644814 -9.008092265861674e-05 -0.003409363253097409
1415 0.016194045625843197 0.02417149749169783 -0.024499557376981482
908 -0.0013194544630134668 -0.0008163189891480443 -0.002096710173344039
374 0.00016933130962457584 -0.0010428976391978967 0.0007627595614458666
911 -0.002547922770372954 0.0017758129303121035 -0.0026922920161010153
880 0.0033335971665978555 0.0047270078384790805 0.0005705933721146595
1636 -0.003150147050748374 0.005673477132065999 -0.0037623689833868336
914 0.0018810809187253749 0.0030510336441366697 -0.0015861962958183587
915 -0.0016145486301136144 0.0029439326833866067 0.0005515152156892666
1269 0.020905373729489283 -0.008946847117092831 -0.00904792854351959
917 -0.0016108765618459316 -0.0061979110225149035 -6.385600729191152e-05
920 -0.0002241320697824638 0.0074998096204608915 7.42477587706903e-05
924 0.0025915924124958615 -0.0038696814370603534 -0.0016802512568039705
925 -0.0014929836497831056 -0.002041096333396021 0.002217459942394443
929 0.0007424557482033003 -0.0005097570915546703 -0.0019107531801961836
930 -0.0022257093641531722 -0.0017304257525512254 0.0021649705569493005
936 -0.002321332515813535 -0.0021457542343417267 0.00035201948489300337
937 0.0016190700351563499 0.00021167367701748431 0.00044897158528285413
1191 0.011413597558536983 -0.01795638302657182 0.0008470584464613904
1573 0.0032834908892326624 -0.003169091998609526 -0.0024696242239286856
957 0.006760446540393578 0.0005622637149573397 0.009907124503336619
1556 -0.004164135126115707 -0.019630272649434878 -0.001209714404105743
961 0.0019245629911257332 -0.0006529986184790154 0.0011585643832620499
967 -0.004659985444375597 0.00496028928460522 -0.005337528028763546
968 0.004008491549088164 -0.005658596143846217 0.0037936702707901666
1400 0.006342217942505478 0.018209879546122198 -0.003300561835891279
1402 0.00033090730100630345 0.00020371381069314017 0.0060179109685959695
1300 -0.0067377505717171726 -0.0005769232720566752 -0.0016412658524427581
1575 -0.014792584776621601 -0.00679456922847905 0.01686851876909074
376 -0.004604497937309885 -0.004394625286453001 0.001949596859864958
1594 0.0062554541075531935 0.0020667079802173366 -0.0002631454545200955
955 0.005079821903940298 -0.012229671878195836 -0.0022948954456785183
1328 -0.004450566708929384 -0.0358553387520886 -0.012078342347496884
1565 0.007301647840924753 0.011332070166474634 -0.00014625394990264482
916 -0.0035016419703505193 -0.0009712561025042602 -0.005353060919622155
641 0.0017963252723959158 0.0008923899877461706 0.00223923943447469
1447 -0.0019862041536710426 0.0014758369391514562 -0.0020333677631168925
1399 -0.0015914393499805353 0.001733556386270047 -0.0010072651989102407
684 0.003976038023052006 0.008431557111745544 -0.002061957775970352
605 -0.001125776655278477 0.004479128016208994 0.003167030570745516
1574 0.006877900374126507 0.007995857871896918 -0.02299590162447634
1282 0.004053248168313228 0.006297274384650754 -6.027922881046336e-06
357 -0.00036223488826864485 -0.001813037969174578 0.004391147629691611
912 -0.006213975290393581 0.004550280200606934 0.0062831544617272805
120 -0.0017711648456656885 0.0025977679561521093 -0.0006988221029871332
1595 -0.0065508107672677006 0.008869533665208438 -0.007048202366786528
960 0.0027541843927050874 -0.003671336236230774 0.007256922848505846
1189 -0.004567007912938699 0.007001279158892561 -0.003968289478533537
1190 -0.017372022797776693 -0.003832100695019931 0.004308296763406509
1404 -0.0068340509863773265 -0.02415444189660662 -0.009909176625836067
610 0.005505333296516087 0.0016983879629443774 0.003786573527022941
687 0.0026054535472087538 -0.004594906990304179 -0.0002055485418314937
1414 -0.002110536569148015 -0.00030699424506423295 0.0015202467184418124
1364 0.0033002366431516194 -0.013007454300574347 -0.0007146713441472763
1329 -0.0221548313146198 -0.03371296983243073 0.015145512436948652
65 0.0019324586513539603 -0.003543798883687073 0.0037117802033627637
1082 0.022152679045660265 -0.024059657843280263 -0.010757461560587852
1327 0.009283816653513847 0.002462764501903016 -0.0009442874603778365
1302 -0.008516709131117869 0.002978217979995329 -0.009960968259985568
1572 -0.02438751370477223 -0.02583392379732179 -0.022129421795725027
66 0.0004006210244404715 -0.0023901533059524074 -0.0010393774086585276
1615 0.0015206319319192474 0.005730145314629246 -0.001711846770004946
1155 0.011041788889156851 0.007097898659417945 0.013303503402751124
604 0.001464394039772986 -0.006840092561997959 -0.004558956974991883
661 0.006323258930166533 0.00020851758723633724 0.003233188070020936
613 -0.005065954333593826 0.0009746188006218494 -0.0023719339843734748
614 -0.0012400412903800706 -0.0025620536336634983 0.00025218454053210207
615 0.0013985710431489462 -0.0015270178559434213 0.0008220108460896423
621 0.0014818773759280033 -0.0008555515410828006 0.00354486124994843
622 0.0005625790023838953 0.0027990614791216207 0.0028878959790584265
623 -0.005413413324660116 -0.00429493640897146 0.001657293923137011
628 0.008436469059059983 0.0037375901984120206 0.0009223865653556963
630 0.008192500950794619 0.0036628648446112065 -0.0020899299011756522
631 -0.0032295781028656044 0.002209348711298903 -0.00033519068501684996
632 -0.0036426703381888964 -0.000357049607152078 0.003267516826555896
633 -0.009857543875425616 -0.005620896603274747 -0.0009597614945759057
634 0.0007197177149993408 0.0071607236849971605 0.002001125495665809
635 0.007483700806654104 -0.009066300542701576 0.007480929930783656
62 -0.0032608592016474722 -0.0024887331788699184 -0.006519659044569504
59 -0.00030422559563757657 0.000917809508083001 -0.0015464681805515323
652 -0.0003876024055816891 0.0025573553180107678 0.001812336289980676
651 -0.0010130672859132229 0.0029690740501019308 -3.5958461027932325e-06
658 0.00464985568152628 0.002383292375376648 0.0010663023836771223
1318 -0.0013374062814892117 -0.002071830091047244 -0.0019614388834615377
662 0.0031973054126383915 -0.004310673569799588 0.0021585310710908324
1596 0.025523097772691357 -0.02093530668104832 -0.012465293357052251
672 -0.0023706698072044168 0.0008289349046650684 0.0013027904133838376
673 0.00045417010902896717 0.0023973344619075947 0.0005817400528415303
676 0.0034433306644000906 0.0027516860334579505 0.004655170335486275
677 -0.0012049391194523828 -0.0002507041868726959 -0.002370632635055579
682 -0.008435659593861595 -0.0009034351967809048 -0.001996989232039624
683 0.00020705701609479303 -0.00423181071592241 0.001992864080838366
865 0.0002314445632620165 -0.0007856013078902742 0.001717773572627317
869 0.0015193220205182048 -0.004637540369139921 0.005683117277147324
872 0.0008900289842512274 -0.0031265568632428274 -0.0008600263055859698
874 0.008189622802285955 -0.0014878226246334584 0.0010591954628989618
876 -0.003508991424940027 3.2492873336793474e-05 0.0008581495012800001
883 0.00033071596386994163 0.00606150433299185 -0.0025514186048072075
884 -0.00058078454227776 -0.0019996723974698752 -0.001536310249318213
885 0.0011897899660982265 -0.0025158360409876872 -0.0007475242511924208
891 -0.00021859833969041222 0.000535744620808599 -0.0023868875690748197
892 -0.0035297729606575865 -0.002565901606195448 -0.001265162266402751
893 -0.0018848469791654975 0.00428334703013203 -0.006437711596461765
898 -0.009106789626743906 0.0013521263116073085 0.0066007338215583675
900 -0.004530385861080533 -0.006361284391659511 -0.0033456784661826107
901 -0.011522671618528145 0.005846022600876356 0.002253572473393619
902 0.001144069720610376 0.0010552337619431458 0.002206510375905129
903 -0.007413682195925216 0.0003036421961837004 -0.002329976393006706
904 -0.0014795682358540766 -0.0037337608417011524 0.005271319801642474
905 -0.001258049404484948 -0.004226490451387739 -0.0006367607743701856
906 -0.0031427302930113793 -0.0011039262114713663 0.004043689267724654
919 -0.004508173916851079 0.005617521026984073 -0.0027582298385483263
1397 -0.007017661639799947 0.025062202406499083 0.008933086771109676
928 -0.0016291569629506963 0.0032541833320008113 0.0014586357632311437
927 -1.5879615770959198e-05 -0.0036287410436249205 0.0003090872185698376
1470 0.006776604588959108 -0.005381188512747567 -0.010743180122420473
931 0.0004030372657361277 -0.004370274114392625 -0.003689787224624219
932 -0.0035153719808335136 -0.0003854128560268038 0.007871663823205461
875 -0.006704701429792351 0.00167043877489648 0.0004496446957341808
1538 -0.0013017469397269604 -0.007165880847888359 -0.02226928486392002
943 0.0004376836118701795 0.0006323405814698778 0.0076153243608443845
946 0.00036759351974523084 -0.0009628892750332957 -0.005742447126389237
947 -0.0049446004050953 -0.0071350503351140775 0.003094095801829905
953 -0.0017451848888749022 -0.0018912397312135258 -0.0034041885669001395
954 -0.002909873144363 -0.001130545539694038 0.004469328209641242
1102 0.0024319958632714024 0.005841640520203478 0.00739080085674011
1103 -0.03130087495704747 -0.02206263502420742 0.019077641820977882
1104 0.027088397141137904 0.03322765819159184 -0.016848499692322425
1625 -0.0267057596170107 -0.0002393135705616636 0.0029421064073119098
602 -0.00203024053346555 -0.00019173939495650266 0.0008420736896737975
1121 0.014175845538679116 -0.00048597821153677565 -0.030203608844919686
1616 -0.023417272871161562 -0.013172407557979245 0.027784306727298105
603 -0.0036530485090224356 -0.0017712971731594059 0.001648393997668289
1301 0.016290288644456308 0.014337992846722004 -0.023973224540307717
1398 0.02051303681968028 0.013372319816675813 -0.01504588433463959
1457 0.01460723992354183 -0.011535064722315434 -0.0047911215248546656
922 -0.0013729247419889646 0.003589988062579833 -0.0005979679705994649
1159 0.0009490247818960668 4.62656304709107e-05 -0.004010075315804867
1136 0.012716366773650494 -0.013515954670195434 0.025763465275353586
1161 -0.021166960191186943 9.393191144871208e-05 0.01819555568793345
1120 0.004204847610034203 0.0010135835312237527 -0.0020681481520196296
1571 -0.01313857245648557 -0.02130140474319933 -0.022515645564516816
707 0.001123997556585145 0.004258805478716768 -0.001201248154639673
1449 -0.00673162429880632 -0.014577340436648493 0.0374283962638161
1193 -0.011743719566472598 -0.027717717564053924 0.019502944059433515
619 -0.0021965758529891018 3.296056931814413e-05 -0.0018988592471471625
1219 0.0023898517914422144 -0.006400372771184293 -0.006963983360729087
1220 0.002684684171586543 -0.03621253599683871 0.003983361802014608
1221 -0.015956050635411403 -0.009444651554552055 -0.005152515206391878
1448 -0.01014704081266695 -0.02132195936828629 0.013496099573290036
1160 0.00352889128909839 0.018836267102151825 0.016685418763747118
1537 0.0046319989362378754 0.00241576467383202 -0.00016057704214680657
642 -0.004230506252266445 -0.003858561511112613 -0.008994850035705736
942 0.0005465077819450753 -0.003010514842277613 0.0032891911404684766
1396 -0.004809521730908874 -0.005756998884091713 8.216488213657626e-06
1135 -0.0034954204372343056 0.0022421079020619374 0.005665125195773674
1468 0.0018078382299289485 -0.00229509955270574 -0.00766886516555292
1296 -0.01887866977552366 0.006899213353593602 -0.014575625715583606
1617 -0.018646895286442356 -0.009026938387642026 0.0006282837740989105
1539 0.02486754443505069 -0.004865905026209805 -0.002664908693953402
60 -0.00252694206092165 -0.0011234393841660752 -0.001130563746789648
1403 0.0032854038567949042 0.0005287295239967448 -0.002513449442567432
1122 -0.018109706386917036 -0.006824764021324088 -0.007557490355408867
913 -0.003900670253021058 -0.006553904419935865 0.002514925662728855
109 0.0022650641599343516 0.004354237340721742 0.00036914405353176107
117 0.0036062923072604017 -0.003832529830035309 -0.004183481806423977
1483 -0.005916783977910658 -0.0037341404906268867 0.013084882697953564
1153 0.008439404169909756 0.0010410474216982198 -0.008160431427379624
1294 0.0031862592593364736 0.0018524671180158193 0.0021657575264632405
1154 0.017020282027280374 -0.010787463704304145 0.013867287839174448
921 -5.779070248426514e-05 0.0008214316844994171 0.0002871579742145766
1295 -0.01592209561718011 0.004769693451096425 -0.026048190227394963
656 0.00428856649977721 0.003671007813425175 0.0025857365034157574
667 0.002776440350816222 -0.004222479778516671 0.0035342256031644084
668 -0.004844681233165073 0.0026596268875634837 0.004700054118069193
771 -0.0004115070996048719 -0.003913418989204464 0.0001650568123574222
670 0.004894169815403004 -0.0010491069743360497 0.00032434227283321666
1583 -0.00488296040016799 0.031341672994798606 0.02460308312568311
678 -0.002886525813860385 0.001079657463222016 0.008095788624348196
978 0.0011031962323740235 0.00034980721771244876 0.003289227621384938
753 0.0002579977497055161 -0.00030232323335252503 -0.0030736072149652595
692 0.0006381298484790444 0.0009316446105934169 0.0011083028325988055
693 0.0034115619377712895 -0.0009114044869253895 -0.00022683617469140049
694 0.003946691442659936 -0.0011338578434654154 0.004717439200345308
695 0.005404295696158827 0.001948195086787043 -0.001384818414225807
696 -0.004704675858072658 -0.005706431685587051 0.0022578478914658463
700 -0.005651852370751872 -0.0022228240943316935 -0.0006177364290520607
702 -0.0011565662863979023 -0.0033791711166430934 -0.005127979287428075
705 -0.001568830514803263 -0.0008444275714930674 -0.0014999063363669018
1428 0.013105723279578428 -0.006176303184358956 0.006344453522314648
711 -0.0004412791532660263 0.00021667612193651675 -0.002793974703014064
1405 -1.183441902319641e-05 -0.00039448837044556585 0.00595740441005672
1026 0.00019128230336071123 -0.001751205748268214 0.006345057958852901
723 -0.0008605397801918911 0.0005437765289862853 0.003835815648212797
724 0.002297293168631048 0.00718781363163372 0.0046766885524654675
725 -0.0006943321109387285 -0.006083253084539232 0.0017752997456554876
726 0.0007512273296585311 0.0034402141913841395 0.006258246481486224
727 0.0070921636093462925 0.006009016081581846 -0.003767001423411109
731 -0.0011101825753939514 -0.0019327743356662272 0.0018958641274882356
734 0.0005090298664573965 -0.0013590567275839742 -0.0013946472665620627
737 0.0010595544989067376 0.0016707706574999243 -0.0001925975314362929
741 -0.0018565540575282364 0.0062262285810861994 -0.001492148604662715
750 0.001825184686155713 0.003181101802594579 -0.005522747264424018
751 -0.0012382804291501462 1.3684863658203456e-06 -0.001413521087695739
752 -0.0004508833206850947 -0.0019196435283119631 -0.0018578979206367117
1250 -0.0024359916955923717 -0.010892611359577843 0.005705032999920156
756 0.00048202018096093314 0.00658738717309996 -0.0004025269134523915
926 -0.005126008887614301 -0.000773836076533812 -0.003020402846949817
938 -0.004041035441571996 0.0012508581879072513 -0.0007895962695298009
939 -0.0038279418036491707 0.0010464588150460106 -0.0019563460757344624
940 -0.00414645068683855 -0.0033044645548041683 -0.002302878265671952
1283 -0.012721159616762793 0.018805912958003598 -0.01291667781446789
1455 0.0013712296803170688 -0.0098195932453457 -0.0073859837764240766
432 0.003631069651045777 -0.005224791417477051 -0.0027278625672328936
1271 0.01398879771143653 0.007953587570233399 0.01674896511333509
963 -0.0023592359226830527 -0.003090050056660619 0.0032842520373534763
964 -0.003635269305538055 -0.0017299793994524366 0.007605289315640623
965 -0.0020983609486878007 -0.0014980704798227872 0.0011068454807378952
966 0.001527667491700758 -0.0030655495799354767 0.00150082962728027
1263 -0.012219997765125348 -0.0036493566258283283 -0.025391495675371314
1558 -0.005291543655273972 0.009483749035237235 0.0025838842060227703
975 0.004281998740318098 0.001392658020508787 -0.005369812733559364
1231 -0.00014512045677313333 -0.000830260738360358 0.002509306258764867
981 -0.00241115843952163 0.003811150207368032 -0.0010989434603879008
1284 0.007920198430475233 0.004109010503971495 0.03554451600580981
1584 -0.005375375262047515 0.015335551824937099 -0.00017574517247476696
993 -0.0038420423911423814 0.0015530144921538955 0.00731529326964889
994 -0.0005913799948350576 0.004455041719775158 0.0032179804458862013
995 0.002139239553283884 -0.003636448411376455 -0.00044267359084492115
996 0.0006160548252441141 0.003946508896354257 0.0018097290575253154
997 0.0018336854337100187 1.2591955470050413e-05 -0.0034167315592875686
1001 0.0009219191910471942 0.002765689567837977 0.0008957347211357356
1004 -0.001214493416901507 -0.002678394985275998 -0.001670071826050321
1007 0.00029064726097930067 -0.004135531068411217 -0.004042894539727376
1010 -0.004120474557001031 0.0004281359385277591 0.0031841774480315384
1386 -0.013246086867818602 -0.013781403451663345 -0.031307647843198644
1019 -1.997427900431317e-05 0.0006034551588708079 -0.00045653237973456345
1020 -0.0031221065618976316 0.0016897528302214201 0.009287723441492295
1411 0.0006762187830285348 -0.004457223973532652 0.0013258187570386565
982 -0.0026323484472851495 0.0018041674823090423 -0.00027494634696635444
1272 -0.01506318804897616 -7.343789496171455e-05 0.0078081263466275265
1306 -0.009038856145608447 0.0031986949244297404 0.0006944533892714308
1413 -0.007920752086818765 -0.010696608576382384 -0.015459284092281507
430 0.0033222341624112067 0.0037603740712388108 -0.0022130136796113943
1022 -0.002480245471626356 0.0001400178163781305 -0.0010615807595687307
1249 -0.003972695251808391 0.010326173172544533 -0.0074428769610542286
1000 -0.004432147407253073 -0.0018847936782058433 0.007075048658700345
1560 0.007568714065261255 0.008906888744681223 -0.014157107673949029
1251 -0.012800630196370514 0.006908246243954393 0.024747931875492814
1344 0.01323521639445313 0.007668059502132215 0.00982579820600297
1412 -0.03952175340323874 -0.0064834433912384845 -0.020653189386741003
1261 0.0019416341526414915 -0.006038316858399851 -0.0031166454662135967
1011 0.0038956266664490783 0.001595600560573796 0.0044939295511718024
1270 0.0025782872298362675 -0.004794073917820131 -0.0032061777066595804
1203 -0.014016625681785702 -0.012766088710238419 -0.018748154849141625
1566 0.015625039256347107 0.007777665426173661 0.002090611514741835
669 0.0028760576982694674 -0.005382650278622196 0.00048781666371534486
708 -0.0010675686853784526 0.003368960234548148 0.0005423761330271499
959 0.009665791975127956 -0.002072777212101646 -0.00027801254347280187
1041 0.002499961388389231 0.0017757434803782244 -0.002188273959990732
1308 0.009346485042932989 -0.02773013116378144 0.003293423258963523
1172 -0.012923927803958677 0.0024284175120138068 0.0031967126919932314
482 -0.001843064541820625 0.003098812451028132 -0.0037915643652711314
1232 -0.009719272593177281 0.022363830483310105 0.00018938683294078884
685 -0.0020195740229417593 0.00036248864629655247 -0.001462747678377106
956 0.0006107261089906886 0.0004343710417599124 0.00015634551657140233
958 -0.006080552833746658 -0.008798158672172712 -0.0017823391574279973
1233 -0.03065991130666354 -0.014045642819893279 0.005949600639234236
1582 -0.0020225694031357514 0.0041418690463623994 -0.00043224765998020555
1632 0.007966700721999018 -0.015943635742619627 0.010503641963285631
688 0.0020611658919869637 0.0023863932300053265 0.0004936782265587485
1385 -0.013918069650037534 -0.02294534649562412 0.01679131750089605
1025 -0.001207413401914047 0.0034965094370653935 0.003040046906094852
691 -0.0040996567232177185 -0.006574171659472712 -0.004286070713775535
653 0.0027843867566231654 0.00021966344384465047 0.0040176453895300794
663 0.0006991883723971388 0.001780289344792251 -0.0025035449373017587
1253 0.0062287685430293315 0.009040577185631771 0.003763537409169815
1254 -0.0035941648837244156 -0.02204044359010994 0.012813569700063423
948 -0.002345437848593184 -0.000232363781061974 0.0015959753177335685
679 0.0033711545382045243 0.0006556125058141595 0.0024206995041346825
680 0.0047117116330841315 -0.0008567471051487838 -0.0026653794330527233
1241 0.005658803445674135 0.01098950003017432 -0.029700717244635653
699 0.002563064166286064 -0.001989378388732126 0.006985855447059678
701 -0.004200738783470938 6.50866060427819e-05 0.0009004265964957985
703 -0.0026829516735499973 -0.004361059714055186 -0.0008528973927195982
1259 0.025799994283745735 -0.0012128458681778588 -0.02455838022593039
709 1.9299612882972064e-05 0.0013688039663686364 -0.0003820986306543902
714 0.005037569950384359 -0.0026632498650141687 -0.000871694941029759
715 -0.0023363748260800898 0.0004538263311745937 -0.0004015523488022611
941 -9.379934174870358e-05 -0.0006256014591685736 0.0009288349444049752
134 -0.0015777160936505598 -0.004284892433955785 -0.001011096591899878
718 -0.0018478756215963923 0.002123099984060632 -0.006872318641580045
722 0.001089033896002418 0.000978479010564193 -0.0032519708087502368
732 0.0001019082855397946 0.0010777966678205196 0.0008486077153888648
736 0.001294345844572388 0.005529837598615164 0.0003290943168944498
738 -0.0001855895845558467 -0.003954145745778793 0.000409217369728094
1515 -0.003054370535522276 -0.0061383276637326295 -0.007093215898362118
743 -0.0011394909146102972 0.003403373203564321 -0.0010109037962071326
744 0.0006783848544208655 0.0020161730048652215 0.001595613950868818
745 -0.0025678089409558597 0.001912348176806839 -0.006054097220857713
749 0.0003517638629985713 -0.005420635958626851 -0.0031705000699023033
923 0.0020481641232972447 0.0020065787636059135 0.0010908188308254591
933 0.0011259476996842816 0.0004093729871179463 -0.0027047964435338774
934 0.0016695710995747455 -0.0013385109272206909 -0.0034035476974591476
935 0.006489843977809588 0.0003027318573800536 -0.005786280297963422
944 0.0034655424274627872 -0.0009229031769664036 0.0022247256827497724
1407 0.0007934914159582066 0.022458193131157485 0.024520034332944567
949 -0.0042372369017281124 0.003491661500473231 -0.0017694923861681935
950 0.008312650809371403 -0.00290369322348867 0.008104272615072851
951 -0.0034247807326373155 -0.005288035038669619 -0.013403312922626469
952 -0.0052700291363470195 0.006092114335212737 0.0027871532982958825
969 0.0008212223749367667 -0.0009779624998259172 -0.0006254480353731295
1258 -0.0015557432127342287 -0.002923173306706695 0.0054224689978117
973 4.43258379764784e-05 0.002667369755241543 0.004802430230169971
977 0.0008968015938585025 0.001191028257556858 -0.0024418086389369127
979 -0.00013502978303919864 -0.0011540400226438554 -0.002351657278283118
984 0.002467778110053766 -0.0033342192521472547 -0.0026529577858898814
985 -0.0008466958783016393 -0.0013385902147334127 -0.002106929508715839
986 -0.0036031958198224014 0.0004154148144338868 -0.012180362270669893
987 -0.0008739118432729222 -0.0003176550634616532 3.8958867098168205e-05
988 0.0040584721216693565 -0.005798565906133314 -0.0017031122557568097
992 0.008814726669398 -0.0006798421691304397 0.0033633865829904544
1002 -0.0008172818849428232 -0.0046433704195700766 0.000548032087506908
1006 -0.0009160984181858595 -0.0008784395533265514 -0.00020166194808050032
1008 0.0032145562000509085 -0.003928693332303555 0.000786107395435328
1013 -0.002248529819580044 -0.001553322183184799 -0.0036987977591498885
1014 -0.0019711161293472835 -0.005279175783608668 0.0038860075010105177
1015 0.004916389456644353 0.0006562016805762086 0.0015847068152095572
1018 -0.00499326852629221 -0.005731073549770461 0.0006452216919662379
717 -0.0013543807096592624 0.0026341802823458315 -0.006925892557418903
1242 -0.001989120475299406 0.00043712609179389977 0.0008001602981182132
945 -0.010464057372209937 -0.0007061775416938928 -0.005074506368097778
1577 0.01669782603894248 -0.02061612924667092 -0.05145591921583719
971 -0.00229851033570579 -0.0031280309979688703 0.004484889655882559
1314 0.008900531473860067 -0.01053594082140904 -0.016709939833443804
671 -0.00830190898101122 0.006695366138323352 0.0012926076576116794
1319 0.01755147702681253 0.008039830982370995 0.018923876861297963
1307 0.027261347041525087 -0.03617582133747822 -0.025767362347029428
989 -0.0006783346796007049 0.0005583927222203748 -0.0040215750331173555
1252 0.0008578829862833382 0.005759421250769438 -0.006506010740245998
1456 0.005005720633771027 0.0011963850231741027 -0.009640769383810964
1238 -0.009721353430700868 -0.008461477559793958 -0.001109984799635993
675 0.00689796144055729 -0.004481180628663404 0.00636194167778888
1240 0.0004796478216630121 -0.00360304337970374 0.0035173147739807602
1237 -0.0015497603248580186 -0.001688679294199595 -0.002561889730893582
962 0.001937708212520052 0.004127807171976022 -0.003739309555432248
1392 0.007856877409077995 0.015327759103641642 0.01846034781497719
1458 -0.006457469050976893 -0.005406945780189715 -0.0027471037025071157
1198 0.00011570283498323458 0.005903874969333397 0.0007447391508507314
1580 -0.0013767297450217536 0.0024058286547103233 0.005776289515395082
1427 0.0013341178079675944 -0.007062759575565675 0.0031292547624135994
1346 0.02263867767085913 0.0089582391518456 -0.02899651981540822
1578 0.026219280879696712 0.0013660643847402496 0.0022353241029933516
1576 0.0017922296390821906 -0.0018842380918043036 0.002192884065951809
1200 -0.009945089212993079 -0.016870363537488095 0.0026921781838875627
1118 0.00418222733983882 -0.00044425250290003543 0.017165999844253845
125 0.002783579627727795 -8.557739269851991e-05 -0.002609470213048641
1514 0.014779725500982197 -0.013438928125435498 0.00937818671465959
1513 0.00016409790335450368 0.0009877056254093725 0.006385575554375929
1520 0.007584925808598808 0.03682613393125008 0.026686229716881296
1519 -0.0040151624509865355 -0.0010796020197849877 0.0018796376816170618
1384 -0.0009669294775642909 0.00030593459478607993 -0.002670753570577703
1337 0.03836850669261471 -0.0044679008673346385 0.0175516545202901
1312 -0.004069319925818592 -0.0015893960554920574 0.005242987520533899
1117 0.00439438975229401 0.0005938027591844751 -0.0013927569732287968
1426 -0.0027409070866763817 -0.0036197490894239004 -0.0007001080946068175
1437 -0.01582962663983775 -0.013547491863716834 0.003950121177438893
681 0.0018171131591011803 -0.007712718898406493 -0.0011451781295925834
719 0.004551042794401164 -0.0012872197057741566 -0.0006701429184159213
1557 -0.021956669968527447 -0.0371068712726821 -0.031546293016104794
1199 -0.014540019123202023 -0.0019429961523992907 0.010338516472981158
1320 -0.0024962452462450797 0.016346668797501584 -0.01065134856740718
706 0.0017346590016028268 0.004147569132484864 0.0019955752341717058
713 -0.0011390717804264667 0.0026103498857983133 0.005625776047456917
728 -0.001274175947063691 0.0024759564638682594 0.004938728455113523
1482 -0.015918419643120543 0.005967869987476936 -0.01566077683025764
540 -0.0015948210457474611 8.321202436256729e-05 -0.0030034182386857507
735 -0.0013847895558634878 -0.0027475727043238017 0.0028775965393423916
742 0.003871149218723968 0.003147933853071124 0.0029203920036354864
754 -0.00417889772775744 -0.00430006897924442 -0.0028964846746278045
1588 -0.0032243292577168845 -0.0041256051667577206 0.0023254492174406365
759 -0.005061547484246878 -0.00029421803935066667 0.0053735873805399025
760 -0.002976080573604249 0.0032201851353566243 -0.002972904025395935
765 0.0008325882647909449 0.0008218772285244889 -0.0051592733135754736
766 -0.003286320328459253 -0.00020320482518706474 0.002147808290276737
767 0.004665696360053754 0.0002497583685045903 -0.0007341420662445702
768 0.0012448491398907384 -0.004002803807794378 0.0005586798661228167
1353 -0.00461724967833019 0.0025179535430773932 0.018660781042294985
1343 0.018166290998377528 0.0029738169566114153 0.02659566282193074
778 -0.0033529076337543264 0.0035522115979575754 0.0005866799248427858
779 0.0013034956099662349 -0.0008596774088811955 0.0017297821608746448
780 -0.0037760886225854423 -0.002476041845073036 -0.0003707992016975603
1277 0.014957636679795813 0.02618650713655695 -0.01153887578242329
782 0.0014708028105007212 -0.0023266325856613384 -0.0020361754376605314
1132 -0.0013015587596084711 -0.007564200476545983 0.0024254452731973424
1207 -0.0050214602898303465 -0.0025915823302679834 -0.00115430416778727
798 0.0028843876902722087 0.0011233836848169307 0.005044560864122091
799 0.002498434782655756 0.0026241960346280262 -0.0032301339059804465
800 0.0014988399169038671 -0.0023921587030768117 -0.0033787216865043095
801 -0.0033712518509015407 -0.004350404404159936 0.0006615458159141919
802 -0.002002973471935414 -0.005631836605645429 0.003955636564816119
1378 -0.008002628387681645 -0.0007285571108850301 0.001500675076610873
804 0.0065280747106186456 -0.0033069773023249546 -0.008559315067091629
729 0.0025795488384587673 -0.0021504866688162832 0.00013073009596266687
806 -0.0013939356161411173 0.004195519863639398 0.0010901587578502924
807 0.007045382123723136 -0.003162681427120813 -0.0011342367281306476
808 -0.005998788733639218 -0.0010789571400494841 -0.0023363160239226704
809 -0.007153194545984661 0.0070813942234917325 -0.009541710323305676
810 -0.006022122764487028 -0.002475629728233299 0.0006425463958954485
976 -0.002016602652225658 0.00514777156766725 0.0016008505147477427
983 -0.003529462750528086 -0.001954357099443927 -0.0027505022205676854
313 -0.0006065110829184601 -0.0004525012574214194 0.001040942388663639
805 -0.003313721921235124 0.004840057209010372 0.002980925426147338
1379 0.009462284074215831 0.011011608449391768 -0.007342959380127791
1005 0.0010736592581614762 -0.001070833813117201 -0.004275055801544822
1012 -0.0016431166307746012 -0.004020891666137974 0.002346266976956784
1023 -0.0021004245331259232 0.00513663174373137 -0.0009255388218209151
1562 -0.0034695003315053144 0.004226793690834171 -0.004351430677142351
998 -0.007032347890208383 0.0012153843189625757 -0.004215790031042412
1029 -3.3666921291613954e-05 0.008323802334437178 -0.00025051766644680666
1030 -0.002773030229184848 0.0036428016762487044 0.005780734613169293
1035 -0.003333549334480119 0.0009238752530636548 -0.0020048098115576004
1607 0.0011472167454905753 0.007076485763254884 -0.01995582769319221
1037 -0.0008223586753151023 0.0033635458598199447 0.003150437249572271
1038 -0.0023386471892173867 -0.002517380745887731 -0.0035175471857349003
1499 0.02193859457118719 0.020299419377928892 0.02656485392390777
1042 -0.0022144532480341947 0.00033328167583810336 -8.02348346933657e-05
1541 -0.03642791661023898 0.004896355530701218 0.005457585843219327
1049 0.0009604672716940413 -3.543345404136931e-05 -0.0006935365167214239
1050 0.0005650056302818914 -0.0018604501597016166 -0.005624175719264694
1276 0.0022154987566025816 0.0031616960639195913 -0.005834918490100279
546 -0.0017531110730627433 -0.0004096670740316175 0.00300212936710883
1497 0.029682085411149077 -0.011377498273598503 0.0017692771428328396
1561 0.001371390057301066 -0.0010084731394221533 -0.00043398163716221877
1068 0.0026826133892986757 -0.0028239183767355194 0.0007747293568680001
1069 0.0015005570675953254 0.0006259928256171054 0.005801093784892492
1070 0.0011697162470309217 -0.002633729684603327 -0.0015303970984956847
1071 0.0003060134342010124 0.002274693180195211 -0.005124476830357926
1072 0.00045681094228166273 -0.00572910968208558 0.0009325320558195163
1278 -0.030673368165652713 0.00506822600306303 -0.0013197237598636415
1074 0.00019097285457061347 -0.007982337364372502 0.004307551437326861
1406 0.00859796923379791 0.012056409884435255 0.021521857323839374
1076 0.0063028078645735045 -0.0009035455106195244 -0.011281490585685007
1077 -0.0028176298871192226 -0.005351166311944926 0.010067451535696175
1078 -0.0010662347182825145 0.004364935047489668 -0.0022480047159981393
1079 -0.0010830505815316437 0.00028738895530564727 0.003481807145539415
1059 0.002824657979167753 0.00448733088236815 0.005340248000266519
1589 0.017746414259019416 0.013989943721484889 -0.0098580301797331
1173 0.010739576715617836 0.02734751325939051 0.0016308782892495246
1590 0.016724184018345002 0.015794697620959475 0.004351480890300969
1563 -0.009384504503106024 0.012376043295261529 0.01566559831566034
1048 -0.002018808972230503 0.0005840840041002817 -0.0002138205043958533
1051 0.0013208341056951264 0.0027966655479813598 -0.000309734717561787
1073 -0.0034998080710924072 0.003547076306879885 -0.0003074830067034083
1441 -0.0005841131511183475 -0.005378223878319433 -0.0035929382145503327
1380 -0.013156773513332146 -0.005319636054000272 0.005740527596154682
772 -0.0035808810038601055 -0.0004177282548116421 -0.001123859904357877
1052 -0.004352222504046996 0.0013977138635144451 0.0027804919696846303
1133 0.029861975727749502 0.00473785023769136 -0.009113357167085263
755 -0.0016916765219988257 -0.0021214124333351595 0.003987490794060484
1498 0.0012013851841473986 0.006943972999495661 -0.0020880037680219526
1208 -0.016439873167741988 -0.03115760082480605 0.0008782924914078513
781 -0.00047820421534342737 0.0005829569302340993 7.091752641018368e-05
1075 0.006025628597830242 0.004990028607107924 -0.0005953792616530885
1342 0.004426950599177791 0.0017024999938598598 -0.0014296136543631719
1209 0.013116301143327104 0.011722740157221141 -0.015937297063942913
999 -0.004773334356618331 0.0005334731655009428 0.0024101487347504276
496 -0.0016539475634893865 0.002272130609384193 -0.0009088903530916935
528 0.0006231386031884349 0.005177997966619811 -0.0013090487591481575
1024 -0.004711914141068243 -0.0030164329234378686 -0.0006795910092154832
846 0.0112299338323366 0.0021384575101063615 0.0006408009974390557
1036 -0.0034150982081516644 -0.000823177177213481 0.0007445483471384172
730 0.001331663239487686 -5.022087585093342e-06 0.007013544565830687
1107 -0.005045409070532937 -0.010310334289180441 -0.010876053800802442
712 -0.00215713469693793 -0.0016565178721932208 -0.0020577284766925908
1060 0.004010907507870716 0.009813382429711068 -0.0012946487861722892
1062 0.0005742860038311212 -0.002851509769121846 -0.0016878320644875544
764 -0.0018551791139549737 0.0021407168404339403 -0.0026978042396349974
1101 0.0020814475342251573 -0.012478907486358128 -0.011719620902035429
733 0.002585746109694157 0.00018966660712892898 -0.0020049282077938837
740 -0.001772026827009713 0.005140814455321518 -0.004602398953778488
1033 -0.001098220791394258 -0.003165141856646026 0.003931198356745817
747 -0.003565959160112481 0.0008929378602514966 0.004237081633300174
1222 0.003679060024421737 -0.0064210111144378515 -0.001896338112224952
757 0.004457851379886162 -0.0021595415106500132 -0.004720455556371522
803 -0.0027778196315806293 -0.0020388788536549454 -0.002195618631310939
761 -0.0024504430140015266 0.004055493935540816 0.0001353555446288725
762 0.0005169634724298643 -0.001732311974677404 0.001279165731224613
991 -0.0012075176733274196 0.00026218006863372597 0.00041306781861363584
164 -0.001805110788113149 -0.0011950765580693557 0.00012695415212765033
769 -0.0030857482300130786 0.004980954876975218 -0.0018919416500325478
770 0.0009589566175012115 0.0034265097188011908 -0.0021921026271323188
773 0.0018596544104618803 0.002676949778053569 -0.004879921995579039
774 -0.0013148907770615809 -0.0008638583080593923 -0.0015591736552698497
775 -0.005347374552680441 0.004644183862986921 -0.0013220439673376177
1500 0.0016877592958261729 0.0005053285017378389 0.008129627544770384
1034 0.003536094845769832 0.0012335927863803304 -0.002496865035036868
783 -0.0018060875610929426 0.001472224385095522 -0.005953519105910549
784 -0.002486727542151144 0.00256780529810319 0.0043152030228776825
785 0.0013734088894853979 0.002830451346369342 -0.008167181225913997
786 -0.002363290377411507 -0.0026458682998946057 -0.004617082506927529
787 -0.0019604226421110135 0.004696394526068411 0.003497249456964424
788 0.0003805015915592976 -0.002476512197358407 -0.0010088397998964961
1613 0.020156582838078294 -0.0060498164220365485 0.007475516410997507
792 0.006119497670422363 0.002678571705709743 -0.0006994100998003909
746 0.0029105999435434272 0.003411197573546969 0.0003072104493668561
793 0.0002001544319144285 0.0020127035716665416 -0.0047762694947957865
794 -0.003193123549988645 0.004446452472639434 -0.0035804116558877503
795 -0.004967274638352438 0.0016580315099217141 0.0019977125265922074
796 0.002365119691384775 -0.0027891615457857574 -0.0008567224295952321
974 -0.0002528623566546617 0.0005142493447064374 0.0034685442296430017
980 0.001993273404534166 0.002115172880889917 0.002815032007745024
990 -0.006436037306582742 0.006128093494995389 0.0005903460088443421
1119 0.001976658207590481 0.010809415287040757 -0.004500939928740628
1003 -0.00187134785776847 0.0022899826801786043 1.1221365399804183e-05
1009 0.004595641581679336 -0.001264259040915374 0.002241807929942157
1340 -0.004510025395818986 0.01037518168233882 0.0033716058011138555
1017 -0.00321499166792935 0.0006928316894297571 0.0046719546226406065
1027 0.002948430579275463 -0.0050675375140691835 0.003461425553525593
1028 0.0006891343193361154 -0.0022391585838247253 0.0017051248356531983
1031 0.0012810165386487474 0.0003188860480614491 -0.0016551844351409646
1032 0.003367765170896131 0.0027751714822746463 -0.0028291934267259855
1106 0.0012788254690890956 -0.029466470356545222 -0.005429625192465488
1543 0.0006735577979894516 -0.0024000379908444276 -0.0013512062796701822
1442 -0.019873251623394348 -0.00737759823707207 0.014710448200707844
1581 -0.02078875047844504 0.006859851733596087 0.003743067521265553
1043 0.0013214565199665728 -0.002332023855197327 0.002359581953328828
1044 -0.007345531279001331 -0.005274353715733739 -0.0008329654287818277
1045 0.0026342491948587927 0.0044107926932703155 0.001595749751041749
815 0.0037419381040457297 0.0007649003915638797 0.0017371839318449619
1608 0.005328001563832486 -0.04202159195652885 0.003017688708036069
1053 0.0038243440673113756 0.00036428230340493015 -0.00307673281771325
1054 -0.00225824132840198 -0.0032068569786066056 -0.00025265484965205314
1055 0.004519123958489374 0.0034897513289327193 0.0011620061686734107
1056 -2.4196451393736656e-05 0.0033503763663568606 -0.009914329982960952
1057 0.0013128885197951868 0.005794808845827188 0.000528384341920275
1058 0.0020933970002767334 0.005771546518548717 -0.0064270317555838
1016 -0.004448047210977698 0.0017611909917549524 -0.0034467583886631796
1496 -0.0030355688822287404 -0.022103152447359702 -0.004654675916273578
1061 0.0032690820929529977 0.004340279222830196 0.002096509999007305
1063 -0.0014474370529353208 -0.008633918237659962 0.003960605237449084
1064 0.00849209376403756 0.0009208835783000228 -0.001777816689689126
1065 -0.0011105592232975572 -0.008525582667638715 -0.004690993350885876
1066 -0.011429691696304641 0.004555720540941925 -0.0023642629838548294
1087 -0.0049164693456250266 -0.0003833812295923977 0.0023888737439641933
1088 -0.033655016336809465 0.008313801334000764 0.0016623284151980485
1089 -0.005055702012032782 0.014111721378413562 0.023553003568819987
1100 0.0026906636208152766 0.009974521434626923 0.007939433176777954
1105 0.0006434702385711903 0.003196911714888601 -0.00038878109725148756
748 0.004036002655980542 0.002621893774706091 -0.0027745630127964916
1099 0.00378189005808706 -0.0007649227384130534 -0.0005276768706846777
1185 0.00844857005682716 -0.019554544725296892 -0.008911304863546509
1338 -0.0017623670179347628 0.012020005322810716 0.022760854358732437
1521 -0.017751044048127586 0.028073822307285203 0.006560738875070724
1459 -0.001819767119539048 -0.0019113074563676022 -0.003213244601439762
1039 -0.00016195597254156302 0.000944295324522369 9.353403072473045e-05
1134 -0.010159183830937859 0.0018207940505394807 -0.025369277526386094
721 -0.00032488715444140904 -0.00020332693221473524 0.0033683485422151462
1183 -0.0024864246544918055 0.0028004810774967747 -0.0012505797746619732
181 -0.0027959792695789543 -0.001900774654476457 -0.0012554066543100735
1436 -0.021706195158319067 -0.00011459053828348885 0.027737276236527338
1184 -0.021578131833238805 0.011474008272223434 0.03003242524693731
1460 -0.0008384152425274001 0.0023550422924928636 0.01258176414047082
1046 -0.0005338733350625981 0.0016169638525499396 0.0020818977522269345
1224 -0.0011071925426242336 0.007402664456733275 0.021864300497074232
1214 -0.023754933181289264 -0.016783619591962836 -0.009845020253430927
1393 0.0026214618152058037 0.001738802061199464 -0.004054965597597633
1305 0.010691144657107098 0.006965820870149919 -0.004689784681085532
1579 -0.002568101224796219 0.0028607390852965248 -0.0009250011654589377
1545 0.005174553116622619 0.0019862148885841265 -0.0028705038891411326
218 -0.00569566284311182 0.0018753207370607616 0.008030845383887356
1336 0.0035299639663469626 0.0011380577389573808 -0.00046305921049365445
1461 -0.004942511949934895 -0.00220991988518288 0.00026814476024165554
1606 -0.0005656262693619049 -0.0006911304003422831 -0.003761385770974372
791 -0.0026267097091821987 0.0030427571283421604 -0.0011156742337275686
763 -0.002903995740302402 -0.0013122072013700028 0.0004741034508569772
1495 -0.00017988275336081017 0.005890953153886733 -0.003650671821943164
1171 0.005584675410245096 0.001984152015091269 -0.002253889480130951
1303 0.00146740298326576 -0.0020001078403033994 -0.004432221743766315
790 -0.002245497030230217 -0.0038333014604907856 -0.003205766268470539
1394 -0.009509682969883523 0.021330966045488838 0.007137353996079303
1544 -0.004514527573053723 -0.005478838465706824 0.006691978733650133
1223 0.02826794793364914 0.011190762745946325 -0.007799299952174726
1304 0.013729500755102013 -0.03189495004714973 -0.03058064959149426
739 -0.0006740543332372149 -0.006807138062590141 -0.0030116139212575284
1612 0.001996151750665515 0.006616560727599151 0.00510404515255408
710 -0.002078261239038225 0.005057505482797437 -0.002899089879831017
1614 0.005540714000846761 0.02598903528931795 0.024163368697045738
