LAMMPS data file generated by cemd on 30/07/2026 15:15:48
 2520 atoms
 3 atom types
         0.000000      34.860000 xlo xhi
         0.000000      24.355075 ylo yhi
         0.000000      60.887327 zlo zhi

 Atom Type Labels

1 C
2 Ca
3 O

 Masses

C 12.01078
Ca 40.0784
O 15.99943

 Atoms # full

1     1  Ca  2.0  2.490000e+00  19.783263   1.522183
2     1  Ca  2.0  4.944882e-16  16.728409   4.566550
3     1  Ca  2.0  2.490000e+00  13.673555   7.610916
4     1  Ca  2.0  3.432107e-15  10.618701  10.655282
5     1  Ca  2.0  2.490000e+00  21.791913   7.610916
6     1  Ca  2.0  4.608135e-15  18.737059  10.655282
7     1  Ca  2.0  2.490000e+00   3.546547   1.522183
8     1  Ca  2.0  3.913977e-15   0.491693   4.566550
9     1  Ca  2.0  5.602347e-15   2.500343  10.655282
10    1  Ca  2.0  2.490000e+00  11.664905   1.522183
11    1  Ca  2.0  9.915943e-16   8.610051   4.566550
12    1  Ca  2.0  2.490000e+00   5.555197   7.610916
13    1  Ca  2.0  2.490000e+00   1.496018   7.610916
14    1  Ca  2.0  2.148018e-15  22.796238  10.655282
15    1  Ca  2.0  2.490000e+00   7.605726   1.522183
16    1  Ca  2.0  1.470903e-15   4.550872   4.566550
17    1  Ca  2.0  2.490000e+00  15.724084   1.522183
18    1  Ca  2.0  1.848823e-15  12.669230   4.566550
19    1  Ca  2.0  2.490000e+00   9.614376   7.610916
20    1  Ca  2.0  3.142230e-15   6.559522  10.655282
21    1  Ca  2.0  2.457499e-15  20.787588   4.566550
22    1  Ca  2.0  2.490000e+00  17.732734   7.610916
23    1  Ca  2.0  3.750906e-15  14.677880  10.655282
24    1  Ca  2.0  2.490000e+00  23.842442   1.522183
25    1  Ca  2.0  2.490000e+00   7.563847  13.699649
26    1  Ca  2.0  6.398648e-15   4.508993  16.744015
27    1  Ca  2.0  2.490000e+00   1.454139  19.788381
28    1  Ca  2.0  7.354514e-15  22.754359  22.832748
29    1  Ca  2.0  2.490000e+00   9.572497  19.788381
30    1  Ca  2.0  9.406513e-15   6.517643  22.832748
31    1  Ca  2.0  2.490000e+00  15.682205  13.699649
32    1  Ca  2.0  7.007324e-15  12.627351  16.744015
33    1  Ca  2.0  1.112097e-14  14.636001  22.832748
34    1  Ca  2.0  2.490000e+00  23.800563  13.699649
35    1  Ca  2.0  5.404436e-15  20.745709  16.744015
36    1  Ca  2.0  2.490000e+00  17.690855  19.788381
37    1  Ca  2.0  2.490000e+00  13.631676  19.788381
38    1  Ca  2.0  8.052178e-15  10.576822  22.832748
39    1  Ca  2.0  2.490000e+00  19.741384  13.699649
40    1  Ca  2.0  5.393310e-15  16.686530  16.744015
41    1  Ca  2.0  2.490000e+00   3.504668  13.699649
42    1  Ca  2.0  1.017826e-14   0.449814  16.744015
43    1  Ca  2.0  2.490000e+00  21.750034  19.788381
44    1  Ca  2.0  8.660854e-15  18.695180  22.832748
45    1  Ca  2.0  9.467441e-15   8.568172  16.744015
46    1  Ca  2.0  2.490000e+00   5.513318  19.788381
47    1  Ca  2.0  1.097456e-14   2.458464  22.832748
48    1  Ca  2.0  2.490000e+00  11.623026  13.699649
49    1  Ca  2.0  2.490000e+00  19.699505  25.877114
50    1  Ca  2.0  9.705707e-15  16.644651  28.921480
51    1  Ca  2.0  2.490000e+00  13.589797  31.965847
52    1  Ca  2.0  1.276824e-14  10.534943  35.010213
53    1  Ca  2.0  2.490000e+00  21.708155  31.965847
54    1  Ca  2.0  1.381935e-14  18.653301  35.010213
55    1  Ca  2.0  2.490000e+00   3.462789  25.877114
56    1  Ca  2.0  1.423098e-14   0.407935  28.921480
57    1  Ca  2.0  1.834463e-14   2.416585  35.010213
58    1  Ca  2.0  2.490000e+00  11.581147  25.877114
59    1  Ca  2.0  1.020281e-14   8.526293  28.921480
60    1  Ca  2.0  2.490000e+00   5.471439  31.965847
61    1  Ca  2.0  2.490000e+00   1.412260  31.965847
62    1  Ca  2.0  1.135924e-14  22.712480  35.010213
63    1  Ca  2.0  2.490000e+00   7.521968  25.877114
64    1  Ca  2.0  1.323231e-14   4.467114  28.921480
65    1  Ca  2.0  2.490000e+00  15.640326  25.877114
66    1  Ca  2.0  1.216582e-14  12.585472  28.921480
67    1  Ca  2.0  2.490000e+00   9.530618  31.965847
68    1  Ca  2.0  1.588451e-14   6.475764  35.010213
69    1  Ca  2.0  1.277450e-14  20.703830  28.921480
70    1  Ca  2.0  2.490000e+00  17.648976  31.965847
71    1  Ca  2.0  1.296213e-14  14.594122  35.010213
72    1  Ca  2.0  2.490000e+00  23.758684  25.877114
73    1   C  4.0  2.490000e+00  22.817178   4.566550
74    1   C  4.0  1.321253e-15  19.762324   7.610916
75    1   C  4.0  2.490000e+00  16.707470  10.655282
76    1   C  4.0  4.903009e-16   1.516957   1.522183
77    1   C  4.0  2.490000e+00   0.470753  10.655282
78    1   C  4.0  1.022058e-15   9.635316   1.522183
79    1   C  4.0  2.490000e+00   6.580461   4.566550
80    1   C  4.0  2.315465e-15   3.525607   7.610916
81    1   C  4.0  1.630735e-15  17.753674   1.522183
82    1   C  4.0  2.490000e+00  14.698820   4.566550
83    1   C  4.0  1.818359e-15  11.643966   7.610916
84    1   C  4.0  2.490000e+00   8.589111  10.655282
85    1   C  4.0  2.490000e+00   4.529932  10.655282
86    1   C  4.0 -3.322767e-16  13.694495   1.522183
87    1   C  4.0  2.490000e+00  10.639641   4.566550
88    1   C  4.0  2.451505e-15   7.584786   7.610916
89    1   C  4.0  2.490000e+00  18.757999   4.566550
90    1   C  4.0  3.781370e-15  15.703145   7.610916
91    1   C  4.0  2.490000e+00  12.648291  10.655282
92    1   C  4.0 -8.293827e-16  21.812853   1.522183
93    1   C  4.0  3.284264e-15  23.821503   7.610916
94    1   C  4.0  2.490000e+00  20.766649  10.655282
95    1   C  4.0  1.648294e-16   5.576136   1.522183
96    1   C  4.0  2.490000e+00   2.521282   4.566550
97    1   C  4.0  2.490000e+00  10.597761  16.744015
98    1   C  4.0  7.225413e-15   7.542907  19.788381
99    1   C  4.0  2.490000e+00   4.488053  22.832748
100   1   C  4.0  4.412708e-15  13.652616  13.699649
101   1   C  4.0  2.490000e+00  12.606411  22.832748
102   1   C  4.0  5.434900e-15  21.770974  13.699649
103   1   C  4.0  2.490000e+00  18.716120  16.744015
104   1   C  4.0  7.834089e-15  15.661266  19.788381
105   1   C  4.0  6.429112e-15   5.534257  13.699649
106   1   C  4.0  2.490000e+00   2.479403  16.744015
107   1   C  4.0  6.231201e-15  23.779624  19.788381
108   1   C  4.0  2.490000e+00  20.724770  22.832748
109   1   C  4.0  2.490000e+00  16.665591  22.832748
110   1   C  4.0  6.891377e-15   1.475078  13.699649
111   1   C  4.0  2.490000e+00  22.775299  16.744015
112   1   C  4.0  6.373912e-15  19.720445  19.788381
113   1   C  4.0  2.490000e+00   6.538582  16.744015
114   1   C  4.0  1.100502e-14   3.483728  19.788381
115   1   C  4.0  2.490000e+00   0.428874  22.832748
116   1   C  4.0  6.180559e-15   9.593436  13.699649
117   1   C  4.0  1.029421e-14  11.602086  19.788381
118   1   C  4.0  2.490000e+00   8.547232  22.832748
119   1   C  4.0  4.577671e-15  17.711795  13.699649
120   1   C  4.0  2.490000e+00  14.656941  16.744015
121   1   C  4.0  2.490000e+00  22.733420  28.921480
122   1   C  4.0  1.053247e-14  19.678566  31.965847
123   1   C  4.0  2.490000e+00  16.623712  35.010213
124   1   C  4.0  1.225171e-14   1.433199  25.877114
125   1   C  4.0  2.490000e+00   0.386995  35.010213
126   1   C  4.0  1.023328e-14   9.551557  25.877114
127   1   C  4.0  2.490000e+00   6.496703  28.921480
128   1   C  4.0  1.505774e-14   3.441849  31.965847
129   1   C  4.0  1.194774e-14  17.669916  25.877114
130   1   C  4.0  2.490000e+00  14.615061  28.921480
131   1   C  4.0  1.213536e-14  11.560207  31.965847
132   1   C  4.0  2.490000e+00   8.505353  35.010213
133   1   C  4.0  2.490000e+00   4.446174  35.010213
134   1   C  4.0  8.878943e-15  13.610736  25.877114
135   1   C  4.0  2.490000e+00  10.555882  28.921480
136   1   C  4.0  1.178764e-14   7.501028  31.965847
137   1   C  4.0  2.490000e+00  18.674241  28.921480
138   1   C  4.0  1.299259e-14  15.619387  31.965847
139   1   C  4.0  2.490000e+00  12.564532  35.010213
140   1   C  4.0  9.487619e-15  21.729095  25.877114
141   1   C  4.0  1.360127e-14  23.737745  31.965847
142   1   C  4.0  2.490000e+00  20.682891  35.010213
143   1   C  4.0  9.376049e-15   5.492378  25.877114
144   1   C  4.0  2.490000e+00   2.437524  28.921480
145   1   O -2.0  1.840110e+00  22.019861   5.361129
146   1   O -2.0  4.330110e+00  18.965007   8.405495
147   1   O -2.0  1.840110e+00  15.910153  11.449862
148   1   O -2.0  4.330110e+00   0.719640   2.316763
149   1   O -2.0  1.840110e+00  24.028511  11.449862
150   1   O -2.0  4.330110e+00   8.837999   2.316763
151   1   O -2.0  1.840110e+00   5.783144   5.361129
152   1   O -2.0  4.330110e+00   2.728290   8.405495
153   1   O -2.0  4.330110e+00  16.956357   2.316763
154   1   O -2.0  1.840110e+00  13.901503   5.361129
155   1   O -2.0  4.330110e+00  10.846649   8.405495
156   1   O -2.0  1.840110e+00   7.791795  11.449862
157   1   O -2.0  3.139890e+00   3.732615  11.449862
158   1   O -2.0  6.498900e-01  12.897178   2.316763
159   1   O -2.0  3.139890e+00   9.842324   5.361129
160   1   O -2.0  6.498900e-01   6.787470   8.405495
161   1   O -2.0  3.139890e+00  17.960682   5.361129
162   1   O -2.0  6.498900e-01  14.905828   8.405495
163   1   O -2.0  3.139890e+00  11.850974  11.449862
164   1   O -2.0  6.498900e-01  21.015536   2.316763
165   1   O -2.0  6.498900e-01  23.024186   8.405495
166   1   O -2.0  3.139890e+00  19.969332  11.449862
167   1   O -2.0  6.498900e-01   4.778819   2.316763
168   1   O -2.0  3.139890e+00   1.723965   5.361129
169   1   O -2.0  3.789780e+00  22.817178   4.566550
170   1   O -2.0  1.299780e+00  19.762324   7.610916
171   1   O -2.0  3.789780e+00  16.707470  10.655282
172   1   O -2.0  1.299780e+00   1.516957   1.522183
173   1   O -2.0  3.789780e+00   0.470753  10.655282
174   1   O -2.0  1.299780e+00   9.635316   1.522183
175   1   O -2.0  3.789780e+00   6.580461   4.566550
176   1   O -2.0  1.299780e+00   3.525607   7.610916
177   1   O -2.0  1.299780e+00  17.753674   1.522183
178   1   O -2.0  3.789780e+00  14.698820   4.566550
179   1   O -2.0  1.299780e+00  11.643966   7.610916
180   1   O -2.0  3.789780e+00   8.589111  10.655282
181   1   O -2.0  6.498900e-01  14.491812   0.727604
182   1   O -2.0  3.139890e+00  11.436957   3.771970
183   1   O -2.0  6.498900e-01   8.382103   6.816336
184   1   O -2.0  3.139890e+00   5.327249   9.860703
185   1   O -2.0  3.139890e+00  19.555316   3.771970
186   1   O -2.0  6.498900e-01  16.500462   6.816336
187   1   O -2.0  3.139890e+00  13.445607   9.860703
188   1   O -2.0  6.498900e-01  22.610170   0.727604
189   1   O -2.0  6.498900e-01   0.263745   6.816336
190   1   O -2.0  3.139890e+00  21.563966   9.860703
191   1   O -2.0  6.498900e-01   6.373453   0.727604
192   1   O -2.0  3.139890e+00   3.318599   3.771970
193   1   O -2.0  4.330110e+00  20.559641   6.816336
194   1   O -2.0  1.840110e+00  17.504787   9.860703
195   1   O -2.0  4.330110e+00   2.314274   0.727604
196   1   O -2.0  1.840110e+00  23.614495   3.771970
197   1   O -2.0  1.840110e+00   1.268070   9.860703
198   1   O -2.0  4.330110e+00  10.432632   0.727604
199   1   O -2.0  1.840110e+00   7.377778   3.771970
200   1   O -2.0  4.330110e+00   4.322924   6.816336
201   1   O -2.0  4.330110e+00  18.550991   0.727604
202   1   O -2.0  1.840110e+00  15.496137   3.771970
203   1   O -2.0  4.330110e+00  12.441282   6.816336
204   1   O -2.0  1.840110e+00   9.386428   9.860703
205   1   O -2.0  1.190220e+00   4.529932  10.655282
206   1   O -2.0  3.680220e+00  13.694495   1.522183
207   1   O -2.0  1.190220e+00  10.639641   4.566550
208   1   O -2.0  3.680220e+00   7.584786   7.610916
209   1   O -2.0  1.190220e+00  18.757999   4.566550
210   1   O -2.0  3.680220e+00  15.703145   7.610916
211   1   O -2.0  1.190220e+00  12.648291  10.655282
212   1   O -2.0  3.680220e+00  21.812853   1.522183
213   1   O -2.0  3.680220e+00  23.821503   7.610916
214   1   O -2.0  1.190220e+00  20.766649  10.655282
215   1   O -2.0  3.680220e+00   5.576136   1.522183
216   1   O -2.0  1.190220e+00   2.521282   4.566550
217   1   O -2.0  1.840110e+00   9.800445  17.538594
218   1   O -2.0  4.330110e+00   6.745590  20.582961
219   1   O -2.0  1.840110e+00   3.690736  23.627327
220   1   O -2.0  4.330110e+00  12.855299  14.494228
221   1   O -2.0  1.840110e+00  11.809095  23.627327
222   1   O -2.0  4.330110e+00  20.973657  14.494228
223   1   O -2.0  1.840110e+00  17.918803  17.538594
224   1   O -2.0  4.330110e+00  14.863949  20.582961
225   1   O -2.0  4.330110e+00   4.736940  14.494228
226   1   O -2.0  1.840110e+00   1.682086  17.538594
227   1   O -2.0  4.330110e+00  22.982307  20.582961
228   1   O -2.0  1.840110e+00  19.927453  23.627327
229   1   O -2.0  3.139890e+00  15.868274  23.627327
230   1   O -2.0  6.498900e-01   0.677761  14.494228
231   1   O -2.0  3.139890e+00  21.977982  17.538594
232   1   O -2.0  6.498900e-01  18.923128  20.582961
233   1   O -2.0  3.139890e+00   5.741265  17.538594
234   1   O -2.0  6.498900e-01   2.686411  20.582961
235   1   O -2.0  3.139890e+00  23.986632  23.627327
236   1   O -2.0  6.498900e-01   8.796120  14.494228
237   1   O -2.0  6.498900e-01  10.804770  20.582961
238   1   O -2.0  3.139890e+00   7.749915  23.627327
239   1   O -2.0  6.498900e-01  16.914478  14.494228
240   1   O -2.0  3.139890e+00  13.859624  17.538594
241   1   O -2.0  3.789780e+00  10.597761  16.744015
242   1   O -2.0  1.299780e+00   7.542907  19.788381
243   1   O -2.0  3.789780e+00   4.488053  22.832748
244   1   O -2.0  1.299780e+00  13.652616  13.699649
245   1   O -2.0  3.789780e+00  12.606411  22.832748
246   1   O -2.0  1.299780e+00  21.770974  13.699649
247   1   O -2.0  3.789780e+00  18.716120  16.744015
248   1   O -2.0  1.299780e+00  15.661266  19.788381
249   1   O -2.0  1.299780e+00   5.534257  13.699649
250   1   O -2.0  3.789780e+00   2.479403  16.744015
251   1   O -2.0  1.299780e+00  23.779624  19.788381
252   1   O -2.0  3.789780e+00  20.724770  22.832748
253   1   O -2.0  6.498900e-01   2.272395  12.905069
254   1   O -2.0  3.139890e+00  23.572616  15.949435
255   1   O -2.0  6.498900e-01  20.517762  18.993802
256   1   O -2.0  3.139890e+00  17.462908  22.038168
257   1   O -2.0  3.139890e+00   7.335899  15.949435
258   1   O -2.0  6.498900e-01   4.281045  18.993802
259   1   O -2.0  3.139890e+00   1.226191  22.038168
260   1   O -2.0  6.498900e-01  10.390753  12.905069
261   1   O -2.0  6.498900e-01  12.399403  18.993802
262   1   O -2.0  3.139890e+00   9.344549  22.038168
263   1   O -2.0  6.498900e-01  18.509112  12.905069
264   1   O -2.0  3.139890e+00  15.454257  15.949435
265   1   O -2.0  4.330110e+00   8.340224  18.993802
266   1   O -2.0  1.840110e+00   5.285370  22.038168
267   1   O -2.0  4.330110e+00  14.449932  12.905069
268   1   O -2.0  1.840110e+00  11.395078  15.949435
269   1   O -2.0  1.840110e+00  13.403728  22.038168
270   1   O -2.0  4.330110e+00  22.568291  12.905069
271   1   O -2.0  1.840110e+00  19.513437  15.949435
272   1   O -2.0  4.330110e+00  16.458583  18.993802
273   1   O -2.0  4.330110e+00   6.331574  12.905069
274   1   O -2.0  1.840110e+00   3.276720  15.949435
275   1   O -2.0  4.330110e+00   0.221866  18.993802
276   1   O -2.0  1.840110e+00  21.522087  22.038168
277   1   O -2.0  1.190220e+00  16.665591  22.832748
278   1   O -2.0  3.680220e+00   1.475078  13.699649
279   1   O -2.0  1.190220e+00  22.775299  16.744015
280   1   O -2.0  3.680220e+00  19.720445  19.788381
281   1   O -2.0  1.190220e+00   6.538582  16.744015
282   1   O -2.0  3.680220e+00   3.483728  19.788381
283   1   O -2.0  1.190220e+00   0.428874  22.832748
284   1   O -2.0  3.680220e+00   9.593436  13.699649
285   1   O -2.0  3.680220e+00  11.602086  19.788381
286   1   O -2.0  1.190220e+00   8.547232  22.832748
287   1   O -2.0  3.680220e+00  17.711795  13.699649
288   1   O -2.0  1.190220e+00  14.656941  16.744015
289   1   O -2.0  1.840110e+00  21.936103  29.716060
290   1   O -2.0  4.330110e+00  18.881249  32.760426
291   1   O -2.0  1.840110e+00  15.826395  35.804792
292   1   O -2.0  4.330110e+00   0.635882  26.671693
293   1   O -2.0  1.840110e+00  23.944753  35.804792
294   1   O -2.0  4.330110e+00   8.754240  26.671693
295   1   O -2.0  1.840110e+00   5.699386  29.716060
296   1   O -2.0  4.330110e+00   2.644532  32.760426
297   1   O -2.0  4.330110e+00  16.872599  26.671693
298   1   O -2.0  1.840110e+00  13.817745  29.716060
299   1   O -2.0  4.330110e+00  10.762890  32.760426
300   1   O -2.0  1.840110e+00   7.708036  35.804792
301   1   O -2.0  3.139890e+00   3.648857  35.804792
302   1   O -2.0  6.498900e-01  12.813420  26.671693
303   1   O -2.0  3.139890e+00   9.758565  29.716060
304   1   O -2.0  6.498900e-01   6.703711  32.760426
305   1   O -2.0  3.139890e+00  17.876924  29.716060
306   1   O -2.0  6.498900e-01  14.822070  32.760426
307   1   O -2.0  3.139890e+00  11.767215  35.804792
308   1   O -2.0  6.498900e-01  20.931778  26.671693
309   1   O -2.0  6.498900e-01  22.940428  32.760426
310   1   O -2.0  3.139890e+00  19.885574  35.804792
311   1   O -2.0  6.498900e-01   4.695061  26.671693
312   1   O -2.0  3.139890e+00   1.640207  29.716060
313   1   O -2.0  3.789780e+00  22.733420  28.921480
314   1   O -2.0  1.299780e+00  19.678566  31.965847
315   1   O -2.0  3.789780e+00  16.623712  35.010213
316   1   O -2.0  1.299780e+00   1.433199  25.877114
317   1   O -2.0  3.789780e+00   0.386995  35.010213
318   1   O -2.0  1.299780e+00   9.551557  25.877114
319   1   O -2.0  3.789780e+00   6.496703  28.921480
320   1   O -2.0  1.299780e+00   3.441849  31.965847
321   1   O -2.0  1.299780e+00  17.669916  25.877114
322   1   O -2.0  3.789780e+00  14.615061  28.921480
323   1   O -2.0  1.299780e+00  11.560207  31.965847
324   1   O -2.0  3.789780e+00   8.505353  35.010213
325   1   O -2.0  6.498900e-01  14.408053  25.082534
326   1   O -2.0  3.139890e+00  11.353199  28.126901
327   1   O -2.0  6.498900e-01   8.298345  31.171267
328   1   O -2.0  3.139890e+00   5.243491  34.215633
329   1   O -2.0  3.139890e+00  19.471558  28.126901
330   1   O -2.0  6.498900e-01  16.416703  31.171267
331   1   O -2.0  3.139890e+00  13.361849  34.215633
332   1   O -2.0  6.498900e-01  22.526412  25.082534
333   1   O -2.0  6.498900e-01   0.179987  31.171267
334   1   O -2.0  3.139890e+00  21.480208  34.215633
335   1   O -2.0  6.498900e-01   6.289695  25.082534
336   1   O -2.0  3.139890e+00   3.234841  28.126901
337   1   O -2.0  4.330110e+00  20.475883  31.171267
338   1   O -2.0  1.840110e+00  17.421028  34.215633
339   1   O -2.0  4.330110e+00   2.230516  25.082534
340   1   O -2.0  1.840110e+00  23.530737  28.126901
341   1   O -2.0  1.840110e+00   1.184312  34.215633
342   1   O -2.0  4.330110e+00  10.348874  25.082534
343   1   O -2.0  1.840110e+00   7.294020  28.126901
344   1   O -2.0  4.330110e+00   4.239166  31.171267
345   1   O -2.0  4.330110e+00  18.467233  25.082534
346   1   O -2.0  1.840110e+00  15.412378  28.126901
347   1   O -2.0  4.330110e+00  12.357524  31.171267
348   1   O -2.0  1.840110e+00   9.302670  34.215633
349   1   O -2.0  1.190220e+00   4.446174  35.010213
350   1   O -2.0  3.680220e+00  13.610736  25.877114
351   1   O -2.0  1.190220e+00  10.555882  28.921480
352   1   O -2.0  3.680220e+00   7.501028  31.965847
353   1   O -2.0  1.190220e+00  18.674241  28.921480
354   1   O -2.0  3.680220e+00  15.619387  31.965847
355   1   O -2.0  1.190220e+00  12.564532  35.010213
356   1   O -2.0  3.680220e+00  21.729095  25.877114
357   1   O -2.0  3.680220e+00  23.737745  31.965847
358   1   O -2.0  1.190220e+00  20.682891  35.010213
359   1   O -2.0  3.680220e+00   5.492378  25.877114
360   1   O -2.0  1.190220e+00   2.437524  28.921480
361   1  Ca  2.0  7.470000e+00  19.783263   1.522183
362   1  Ca  2.0  4.980000e+00  16.728409   4.566550
363   1  Ca  2.0  7.470000e+00  13.673555   7.610916
364   1  Ca  2.0  4.980000e+00  10.618701  10.655282
365   1  Ca  2.0  7.470000e+00  21.791913   7.610916
366   1  Ca  2.0  4.980000e+00  18.737059  10.655282
367   1  Ca  2.0  7.470000e+00   3.546547   1.522183
368   1  Ca  2.0  4.980000e+00   0.491693   4.566550
369   1  Ca  2.0  4.980000e+00   2.500343  10.655282
370   1  Ca  2.0  7.470000e+00  11.664905   1.522183
371   1  Ca  2.0  4.980000e+00   8.610051   4.566550
372   1  Ca  2.0  7.470000e+00   5.555197   7.610916
373   1  Ca  2.0  7.470000e+00   1.496018   7.610916
374   1  Ca  2.0  4.980000e+00  22.796238  10.655282
375   1  Ca  2.0  7.470000e+00   7.605726   1.522183
376   1  Ca  2.0  4.980000e+00   4.550872   4.566550
377   1  Ca  2.0  7.470000e+00  15.724084   1.522183
378   1  Ca  2.0  4.980000e+00  12.669230   4.566550
379   1  Ca  2.0  7.470000e+00   9.614376   7.610916
380   1  Ca  2.0  4.980000e+00   6.559522  10.655282
381   1  Ca  2.0  4.980000e+00  20.787588   4.566550
382   1  Ca  2.0  7.470000e+00  17.732734   7.610916
383   1  Ca  2.0  4.980000e+00  14.677880  10.655282
384   1  Ca  2.0  7.470000e+00  23.842442   1.522183
385   1  Ca  2.0  7.470000e+00   7.563847  13.699649
386   1  Ca  2.0  4.980000e+00   4.508993  16.744015
387   1  Ca  2.0  7.470000e+00   1.454139  19.788381
388   1  Ca  2.0  4.980000e+00  22.754359  22.832748
389   1  Ca  2.0  7.470000e+00   9.572497  19.788381
390   1  Ca  2.0  4.980000e+00   6.517643  22.832748
391   1  Ca  2.0  7.470000e+00  15.682205  13.699649
392   1  Ca  2.0  4.980000e+00  12.627351  16.744015
393   1  Ca  2.0  4.980000e+00  14.636001  22.832748
394   1  Ca  2.0  7.470000e+00  23.800563  13.699649
395   1  Ca  2.0  4.980000e+00  20.745709  16.744015
396   1  Ca  2.0  7.470000e+00  17.690855  19.788381
397   1  Ca  2.0  7.470000e+00  13.631676  19.788381
398   1  Ca  2.0  4.980000e+00  10.576822  22.832748
399   1  Ca  2.0  7.470000e+00  19.741384  13.699649
400   1  Ca  2.0  4.980000e+00  16.686530  16.744015
401   1  Ca  2.0  7.470000e+00   3.504668  13.699649
402   1  Ca  2.0  4.980000e+00   0.449814  16.744015
403   1  Ca  2.0  7.470000e+00  21.750034  19.788381
404   1  Ca  2.0  4.980000e+00  18.695180  22.832748
405   1  Ca  2.0  4.980000e+00   8.568172  16.744015
406   1  Ca  2.0  7.470000e+00   5.513318  19.788381
407   1  Ca  2.0  4.980000e+00   2.458464  22.832748
408   1  Ca  2.0  7.470000e+00  11.623026  13.699649
409   1  Ca  2.0  7.470000e+00  19.699505  25.877114
410   1  Ca  2.0  4.980000e+00  16.644651  28.921480
411   1  Ca  2.0  7.470000e+00  13.589797  31.965847
412   1  Ca  2.0  4.980000e+00  10.534943  35.010213
413   1  Ca  2.0  7.470000e+00  21.708155  31.965847
414   1  Ca  2.0  4.980000e+00  18.653301  35.010213
415   1  Ca  2.0  7.470000e+00   3.462789  25.877114
416   1  Ca  2.0  4.980000e+00   0.407935  28.921480
417   1  Ca  2.0  4.980000e+00   2.416585  35.010213
418   1  Ca  2.0  7.470000e+00  11.581147  25.877114
419   1  Ca  2.0  4.980000e+00   8.526293  28.921480
420   1  Ca  2.0  7.470000e+00   5.471439  31.965847
421   1  Ca  2.0  7.470000e+00   1.412260  31.965847
422   1  Ca  2.0  4.980000e+00  22.712480  35.010213
423   1  Ca  2.0  7.470000e+00   7.521968  25.877114
424   1  Ca  2.0  4.980000e+00   4.467114  28.921480
425   1  Ca  2.0  7.470000e+00  15.640326  25.877114
426   1  Ca  2.0  4.980000e+00  12.585472  28.921480
427   1  Ca  2.0  7.470000e+00   9.530618  31.965847
428   1  Ca  2.0  4.980000e+00   6.475764  35.010213
429   1  Ca  2.0  4.980000e+00  20.703830  28.921480
430   1  Ca  2.0  7.470000e+00  17.648976  31.965847
431   1  Ca  2.0  4.980000e+00  14.594122  35.010213
432   1  Ca  2.0  7.470000e+00  23.758684  25.877114
433   1   C  4.0  7.470000e+00  22.817178   4.566550
434   1   C  4.0  4.980000e+00  19.762324   7.610916
435   1   C  4.0  7.470000e+00  16.707470  10.655282
436   1   C  4.0  4.980000e+00   1.516957   1.522183
437   1   C  4.0  7.470000e+00   0.470753  10.655282
438   1   C  4.0  4.980000e+00   9.635316   1.522183
439   1   C  4.0  7.470000e+00   6.580461   4.566550
440   1   C  4.0  4.980000e+00   3.525607   7.610916
441   1   C  4.0  4.980000e+00  17.753674   1.522183
442   1   C  4.0  7.470000e+00  14.698820   4.566550
443   1   C  4.0  4.980000e+00  11.643966   7.610916
444   1   C  4.0  7.470000e+00   8.589111  10.655282
445   1   C  4.0  7.470000e+00   4.529932  10.655282
446   1   C  4.0  4.980000e+00  13.694495   1.522183
447   1   C  4.0  7.470000e+00  10.639641   4.566550
448   1   C  4.0  4.980000e+00   7.584786   7.610916
449   1   C  4.0  7.470000e+00  18.757999   4.566550
450   1   C  4.0  4.980000e+00  15.703145   7.610916
451   1   C  4.0  7.470000e+00  12.648291  10.655282
452   1   C  4.0  4.980000e+00  21.812853   1.522183
453   1   C  4.0  4.980000e+00  23.821503   7.610916
454   1   C  4.0  7.470000e+00  20.766649  10.655282
455   1   C  4.0  4.980000e+00   5.576136   1.522183
456   1   C  4.0  7.470000e+00   2.521282   4.566550
457   1   C  4.0  7.470000e+00  10.597761  16.744015
458   1   C  4.0  4.980000e+00   7.542907  19.788381
459   1   C  4.0  7.470000e+00   4.488053  22.832748
460   1   C  4.0  4.980000e+00  13.652616  13.699649
461   1   C  4.0  7.470000e+00  12.606411  22.832748
462   1   C  4.0  4.980000e+00  21.770974  13.699649
463   1   C  4.0  7.470000e+00  18.716120  16.744015
464   1   C  4.0  4.980000e+00  15.661266  19.788381
465   1   C  4.0  4.980000e+00   5.534257  13.699649
466   1   C  4.0  7.470000e+00   2.479403  16.744015
467   1   C  4.0  4.980000e+00  23.779624  19.788381
468   1   C  4.0  7.470000e+00  20.724770  22.832748
469   1   C  4.0  7.470000e+00  16.665591  22.832748
470   1   C  4.0  4.980000e+00   1.475078  13.699649
471   1   C  4.0  7.470000e+00  22.775299  16.744015
472   1   C  4.0  4.980000e+00  19.720445  19.788381
473   1   C  4.0  7.470000e+00   6.538582  16.744015
474   1   C  4.0  4.980000e+00   3.483728  19.788381
475   1   C  4.0  7.470000e+00   0.428874  22.832748
476   1   C  4.0  4.980000e+00   9.593436  13.699649
477   1   C  4.0  4.980000e+00  11.602086  19.788381
478   1   C  4.0  7.470000e+00   8.547232  22.832748
479   1   C  4.0  4.980000e+00  17.711795  13.699649
480   1   C  4.0  7.470000e+00  14.656941  16.744015
481   1   C  4.0  7.470000e+00  22.733420  28.921480
482   1   C  4.0  4.980000e+00  19.678566  31.965847
483   1   C  4.0  7.470000e+00  16.623712  35.010213
484   1   C  4.0  4.980000e+00   1.433199  25.877114
485   1   C  4.0  7.470000e+00   0.386995  35.010213
486   1   C  4.0  4.980000e+00   9.551557  25.877114
487   1   C  4.0  7.470000e+00   6.496703  28.921480
488   1   C  4.0  4.980000e+00   3.441849  31.965847
489   1   C  4.0  4.980000e+00  17.669916  25.877114
490   1   C  4.0  7.470000e+00  14.615061  28.921480
491   1   C  4.0  4.980000e+00  11.560207  31.965847
492   1   C  4.0  7.470000e+00   8.505353  35.010213
493   1   C  4.0  7.470000e+00   4.446174  35.010213
494   1   C  4.0  4.980000e+00  13.610736  25.877114
495   1   C  4.0  7.470000e+00  10.555882  28.921480
496   1   C  4.0  4.980000e+00   7.501028  31.965847
497   1   C  4.0  7.470000e+00  18.674241  28.921480
498   1   C  4.0  4.980000e+00  15.619387  31.965847
499   1   C  4.0  7.470000e+00  12.564532  35.010213
500   1   C  4.0  4.980000e+00  21.729095  25.877114
501   1   C  4.0  4.980000e+00  23.737745  31.965847
502   1   C  4.0  7.470000e+00  20.682891  35.010213
503   1   C  4.0  4.980000e+00   5.492378  25.877114
504   1   C  4.0  7.470000e+00   2.437524  28.921480
505   1   O -2.0  6.820110e+00  22.019861   5.361129
506   1   O -2.0  9.310110e+00  18.965007   8.405495
507   1   O -2.0  6.820110e+00  15.910153  11.449862
508   1   O -2.0  9.310110e+00   0.719640   2.316763
509   1   O -2.0  6.820110e+00  24.028511  11.449862
510   1   O -2.0  9.310110e+00   8.837999   2.316763
511   1   O -2.0  6.820110e+00   5.783144   5.361129
512   1   O -2.0  9.310110e+00   2.728290   8.405495
513   1   O -2.0  9.310110e+00  16.956357   2.316763
514   1   O -2.0  6.820110e+00  13.901503   5.361129
515   1   O -2.0  9.310110e+00  10.846649   8.405495
516   1   O -2.0  6.820110e+00   7.791795  11.449862
517   1   O -2.0  8.119890e+00   3.732615  11.449862
518   1   O -2.0  5.629890e+00  12.897178   2.316763
519   1   O -2.0  8.119890e+00   9.842324   5.361129
520   1   O -2.0  5.629890e+00   6.787470   8.405495
521   1   O -2.0  8.119890e+00  17.960682   5.361129
522   1   O -2.0  5.629890e+00  14.905828   8.405495
523   1   O -2.0  8.119890e+00  11.850974  11.449862
524   1   O -2.0  5.629890e+00  21.015536   2.316763
525   1   O -2.0  5.629890e+00  23.024186   8.405495
526   1   O -2.0  8.119890e+00  19.969332  11.449862
527   1   O -2.0  5.629890e+00   4.778819   2.316763
528   1   O -2.0  8.119890e+00   1.723965   5.361129
529   1   O -2.0  8.769780e+00  22.817178   4.566550
530   1   O -2.0  6.279780e+00  19.762324   7.610916
531   1   O -2.0  8.769780e+00  16.707470  10.655282
532   1   O -2.0  6.279780e+00   1.516957   1.522183
533   1   O -2.0  8.769780e+00   0.470753  10.655282
534   1   O -2.0  6.279780e+00   9.635316   1.522183
535   1   O -2.0  8.769780e+00   6.580461   4.566550
536   1   O -2.0  6.279780e+00   3.525607   7.610916
537   1   O -2.0  6.279780e+00  17.753674   1.522183
538   1   O -2.0  8.769780e+00  14.698820   4.566550
539   1   O -2.0  6.279780e+00  11.643966   7.610916
540   1   O -2.0  8.769780e+00   8.589111  10.655282
541   1   O -2.0  5.629890e+00  14.491812   0.727604
542   1   O -2.0  8.119890e+00  11.436957   3.771970
543   1   O -2.0  5.629890e+00   8.382103   6.816336
544   1   O -2.0  8.119890e+00   5.327249   9.860703
545   1   O -2.0  8.119890e+00  19.555316   3.771970
546   1   O -2.0  5.629890e+00  16.500462   6.816336
547   1   O -2.0  8.119890e+00  13.445607   9.860703
548   1   O -2.0  5.629890e+00  22.610170   0.727604
549   1   O -2.0  5.629890e+00   0.263745   6.816336
550   1   O -2.0  8.119890e+00  21.563966   9.860703
551   1   O -2.0  5.629890e+00   6.373453   0.727604
552   1   O -2.0  8.119890e+00   3.318599   3.771970
553   1   O -2.0  9.310110e+00  20.559641   6.816336
554   1   O -2.0  6.820110e+00  17.504787   9.860703
555   1   O -2.0  9.310110e+00   2.314274   0.727604
556   1   O -2.0  6.820110e+00  23.614495   3.771970
557   1   O -2.0  6.820110e+00   1.268070   9.860703
558   1   O -2.0  9.310110e+00  10.432632   0.727604
559   1   O -2.0  6.820110e+00   7.377778   3.771970
560   1   O -2.0  9.310110e+00   4.322924   6.816336
561   1   O -2.0  9.310110e+00  18.550991   0.727604
562   1   O -2.0  6.820110e+00  15.496137   3.771970
563   1   O -2.0  9.310110e+00  12.441282   6.816336
564   1   O -2.0  6.820110e+00   9.386428   9.860703
565   1   O -2.0  6.170220e+00   4.529932  10.655282
566   1   O -2.0  8.660220e+00  13.694495   1.522183
567   1   O -2.0  6.170220e+00  10.639641   4.566550
568   1   O -2.0  8.660220e+00   7.584786   7.610916
569   1   O -2.0  6.170220e+00  18.757999   4.566550
570   1   O -2.0  8.660220e+00  15.703145   7.610916
571   1   O -2.0  6.170220e+00  12.648291  10.655282
572   1   O -2.0  8.660220e+00  21.812853   1.522183
573   1   O -2.0  8.660220e+00  23.821503   7.610916
574   1   O -2.0  6.170220e+00  20.766649  10.655282
575   1   O -2.0  8.660220e+00   5.576136   1.522183
576   1   O -2.0  6.170220e+00   2.521282   4.566550
577   1   O -2.0  6.820110e+00   9.800445  17.538594
578   1   O -2.0  9.310110e+00   6.745590  20.582961
579   1   O -2.0  6.820110e+00   3.690736  23.627327
580   1   O -2.0  9.310110e+00  12.855299  14.494228
581   1   O -2.0  6.820110e+00  11.809095  23.627327
582   1   O -2.0  9.310110e+00  20.973657  14.494228
583   1   O -2.0  6.820110e+00  17.918803  17.538594
584   1   O -2.0  9.310110e+00  14.863949  20.582961
585   1   O -2.0  9.310110e+00   4.736940  14.494228
586   1   O -2.0  6.820110e+00   1.682086  17.538594
587   1   O -2.0  9.310110e+00  22.982307  20.582961
588   1   O -2.0  6.820110e+00  19.927453  23.627327
589   1   O -2.0  8.119890e+00  15.868274  23.627327
590   1   O -2.0  5.629890e+00   0.677761  14.494228
591   1   O -2.0  8.119890e+00  21.977982  17.538594
592   1   O -2.0  5.629890e+00  18.923128  20.582961
593   1   O -2.0  8.119890e+00   5.741265  17.538594
594   1   O -2.0  5.629890e+00   2.686411  20.582961
595   1   O -2.0  8.119890e+00  23.986632  23.627327
596   1   O -2.0  5.629890e+00   8.796120  14.494228
597   1   O -2.0  5.629890e+00  10.804770  20.582961
598   1   O -2.0  8.119890e+00   7.749915  23.627327
599   1   O -2.0  5.629890e+00  16.914478  14.494228
600   1   O -2.0  8.119890e+00  13.859624  17.538594
601   1   O -2.0  8.769780e+00  10.597761  16.744015
602   1   O -2.0  6.279780e+00   7.542907  19.788381
603   1   O -2.0  8.769780e+00   4.488053  22.832748
604   1   O -2.0  6.279780e+00  13.652616  13.699649
605   1   O -2.0  8.769780e+00  12.606411  22.832748
606   1   O -2.0  6.279780e+00  21.770974  13.699649
607   1   O -2.0  8.769780e+00  18.716120  16.744015
608   1   O -2.0  6.279780e+00  15.661266  19.788381
609   1   O -2.0  6.279780e+00   5.534257  13.699649
610   1   O -2.0  8.769780e+00   2.479403  16.744015
611   1   O -2.0  6.279780e+00  23.779624  19.788381
612   1   O -2.0  8.769780e+00  20.724770  22.832748
613   1   O -2.0  5.629890e+00   2.272395  12.905069
614   1   O -2.0  8.119890e+00  23.572616  15.949435
615   1   O -2.0  5.629890e+00  20.517762  18.993802
616   1   O -2.0  8.119890e+00  17.462908  22.038168
617   1   O -2.0  8.119890e+00   7.335899  15.949435
618   1   O -2.0  5.629890e+00   4.281045  18.993802
619   1   O -2.0  8.119890e+00   1.226191  22.038168
620   1   O -2.0  5.629890e+00  10.390753  12.905069
621   1   O -2.0  5.629890e+00  12.399403  18.993802
622   1   O -2.0  8.119890e+00   9.344549  22.038168
623   1   O -2.0  5.629890e+00  18.509112  12.905069
624   1   O -2.0  8.119890e+00  15.454257  15.949435
625   1   O -2.0  9.310110e+00   8.340224  18.993802
626   1   O -2.0  6.820110e+00   5.285370  22.038168
627   1   O -2.0  9.310110e+00  14.449932  12.905069
628   1   O -2.0  6.820110e+00  11.395078  15.949435
629   1   O -2.0  6.820110e+00  13.403728  22.038168
630   1   O -2.0  9.310110e+00  22.568291  12.905069
631   1   O -2.0  6.820110e+00  19.513437  15.949435
632   1   O -2.0  9.310110e+00  16.458583  18.993802
633   1   O -2.0  9.310110e+00   6.331574  12.905069
634   1   O -2.0  6.820110e+00   3.276720  15.949435
635   1   O -2.0  9.310110e+00   0.221866  18.993802
636   1   O -2.0  6.820110e+00  21.522087  22.038168
637   1   O -2.0  6.170220e+00  16.665591  22.832748
638   1   O -2.0  8.660220e+00   1.475078  13.699649
639   1   O -2.0  6.170220e+00  22.775299  16.744015
640   1   O -2.0  8.660220e+00  19.720445  19.788381
641   1   O -2.0  6.170220e+00   6.538582  16.744015
642   1   O -2.0  8.660220e+00   3.483728  19.788381
643   1   O -2.0  6.170220e+00   0.428874  22.832748
644   1   O -2.0  8.660220e+00   9.593436  13.699649
645   1   O -2.0  8.660220e+00  11.602086  19.788381
646   1   O -2.0  6.170220e+00   8.547232  22.832748
647   1   O -2.0  8.660220e+00  17.711795  13.699649
648   1   O -2.0  6.170220e+00  14.656941  16.744015
649   1   O -2.0  6.820110e+00  21.936103  29.716060
650   1   O -2.0  9.310110e+00  18.881249  32.760426
651   1   O -2.0  6.820110e+00  15.826395  35.804792
652   1   O -2.0  9.310110e+00   0.635882  26.671693
653   1   O -2.0  6.820110e+00  23.944753  35.804792
654   1   O -2.0  9.310110e+00   8.754240  26.671693
655   1   O -2.0  6.820110e+00   5.699386  29.716060
656   1   O -2.0  9.310110e+00   2.644532  32.760426
657   1   O -2.0  9.310110e+00  16.872599  26.671693
658   1   O -2.0  6.820110e+00  13.817745  29.716060
659   1   O -2.0  9.310110e+00  10.762890  32.760426
660   1   O -2.0  6.820110e+00   7.708036  35.804792
661   1   O -2.0  8.119890e+00   3.648857  35.804792
662   1   O -2.0  5.629890e+00  12.813420  26.671693
663   1   O -2.0  8.119890e+00   9.758565  29.716060
664   1   O -2.0  5.629890e+00   6.703711  32.760426
665   1   O -2.0  8.119890e+00  17.876924  29.716060
666   1   O -2.0  5.629890e+00  14.822070  32.760426
667   1   O -2.0  8.119890e+00  11.767215  35.804792
668   1   O -2.0  5.629890e+00  20.931778  26.671693
669   1   O -2.0  5.629890e+00  22.940428  32.760426
670   1   O -2.0  8.119890e+00  19.885574  35.804792
671   1   O -2.0  5.629890e+00   4.695061  26.671693
672   1   O -2.0  8.119890e+00   1.640207  29.716060
673   1   O -2.0  8.769780e+00  22.733420  28.921480
674   1   O -2.0  6.279780e+00  19.678566  31.965847
675   1   O -2.0  8.769780e+00  16.623712  35.010213
676   1   O -2.0  6.279780e+00   1.433199  25.877114
677   1   O -2.0  8.769780e+00   0.386995  35.010213
678   1   O -2.0  6.279780e+00   9.551557  25.877114
679   1   O -2.0  8.769780e+00   6.496703  28.921480
680   1   O -2.0  6.279780e+00   3.441849  31.965847
681   1   O -2.0  6.279780e+00  17.669916  25.877114
682   1   O -2.0  8.769780e+00  14.615061  28.921480
683   1   O -2.0  6.279780e+00  11.560207  31.965847
684   1   O -2.0  8.769780e+00   8.505353  35.010213
685   1   O -2.0  5.629890e+00  14.408053  25.082534
686   1   O -2.0  8.119890e+00  11.353199  28.126901
687   1   O -2.0  5.629890e+00   8.298345  31.171267
688   1   O -2.0  8.119890e+00   5.243491  34.215633
689   1   O -2.0  8.119890e+00  19.471558  28.126901
690   1   O -2.0  5.629890e+00  16.416703  31.171267
691   1   O -2.0  8.119890e+00  13.361849  34.215633
692   1   O -2.0  5.629890e+00  22.526412  25.082534
693   1   O -2.0  5.629890e+00   0.179987  31.171267
694   1   O -2.0  8.119890e+00  21.480208  34.215633
695   1   O -2.0  5.629890e+00   6.289695  25.082534
696   1   O -2.0  8.119890e+00   3.234841  28.126901
697   1   O -2.0  9.310110e+00  20.475883  31.171267
698   1   O -2.0  6.820110e+00  17.421028  34.215633
699   1   O -2.0  9.310110e+00   2.230516  25.082534
700   1   O -2.0  6.820110e+00  23.530737  28.126901
701   1   O -2.0  6.820110e+00   1.184312  34.215633
702   1   O -2.0  9.310110e+00  10.348874  25.082534
703   1   O -2.0  6.820110e+00   7.294020  28.126901
704   1   O -2.0  9.310110e+00   4.239166  31.171267
705   1   O -2.0  9.310110e+00  18.467233  25.082534
706   1   O -2.0  6.820110e+00  15.412378  28.126901
707   1   O -2.0  9.310110e+00  12.357524  31.171267
708   1   O -2.0  6.820110e+00   9.302670  34.215633
709   1   O -2.0  6.170220e+00   4.446174  35.010213
710   1   O -2.0  8.660220e+00  13.610736  25.877114
711   1   O -2.0  6.170220e+00  10.555882  28.921480
712   1   O -2.0  8.660220e+00   7.501028  31.965847
713   1   O -2.0  6.170220e+00  18.674241  28.921480
714   1   O -2.0  8.660220e+00  15.619387  31.965847
715   1   O -2.0  6.170220e+00  12.564532  35.010213
716   1   O -2.0  8.660220e+00  21.729095  25.877114
717   1   O -2.0  8.660220e+00  23.737745  31.965847
718   1   O -2.0  6.170220e+00  20.682891  35.010213
719   1   O -2.0  8.660220e+00   5.492378  25.877114
720   1   O -2.0  6.170220e+00   2.437524  28.921480
721   1  Ca  2.0  1.245000e+01  19.783263   1.522183
722   1  Ca  2.0  9.960000e+00  16.728409   4.566550
723   1  Ca  2.0  1.245000e+01  13.673555   7.610916
724   1  Ca  2.0  9.960000e+00  10.618701  10.655282
725   1  Ca  2.0  1.245000e+01  21.791913   7.610916
726   1  Ca  2.0  9.960000e+00  18.737059  10.655282
727   1  Ca  2.0  1.245000e+01   3.546547   1.522183
728   1  Ca  2.0  9.960000e+00   0.491693   4.566550
729   1  Ca  2.0  9.960000e+00   2.500343  10.655282
730   1  Ca  2.0  1.245000e+01  11.664905   1.522183
731   1  Ca  2.0  9.960000e+00   8.610051   4.566550
732   1  Ca  2.0  1.245000e+01   5.555197   7.610916
733   1  Ca  2.0  1.245000e+01   1.496018   7.610916
734   1  Ca  2.0  9.960000e+00  22.796238  10.655282
735   1  Ca  2.0  1.245000e+01   7.605726   1.522183
736   1  Ca  2.0  9.960000e+00   4.550872   4.566550
737   1  Ca  2.0  1.245000e+01  15.724084   1.522183
738   1  Ca  2.0  9.960000e+00  12.669230   4.566550
739   1  Ca  2.0  1.245000e+01   9.614376   7.610916
740   1  Ca  2.0  9.960000e+00   6.559522  10.655282
741   1  Ca  2.0  9.960000e+00  20.787588   4.566550
742   1  Ca  2.0  1.245000e+01  17.732734   7.610916
743   1  Ca  2.0  9.960000e+00  14.677880  10.655282
744   1  Ca  2.0  1.245000e+01  23.842442   1.522183
745   1  Ca  2.0  1.245000e+01   7.563847  13.699649
746   1  Ca  2.0  9.960000e+00   4.508993  16.744015
747   1  Ca  2.0  1.245000e+01   1.454139  19.788381
748   1  Ca  2.0  9.960000e+00  22.754359  22.832748
749   1  Ca  2.0  1.245000e+01   9.572497  19.788381
750   1  Ca  2.0  9.960000e+00   6.517643  22.832748
751   1  Ca  2.0  1.245000e+01  15.682205  13.699649
752   1  Ca  2.0  9.960000e+00  12.627351  16.744015
753   1  Ca  2.0  9.960000e+00  14.636001  22.832748
754   1  Ca  2.0  1.245000e+01  23.800563  13.699649
755   1  Ca  2.0  9.960000e+00  20.745709  16.744015
756   1  Ca  2.0  1.245000e+01  17.690855  19.788381
757   1  Ca  2.0  1.245000e+01  13.631676  19.788381
758   1  Ca  2.0  9.960000e+00  10.576822  22.832748
759   1  Ca  2.0  1.245000e+01  19.741384  13.699649
760   1  Ca  2.0  9.960000e+00  16.686530  16.744015
761   1  Ca  2.0  1.245000e+01   3.504668  13.699649
762   1  Ca  2.0  9.960000e+00   0.449814  16.744015
763   1  Ca  2.0  1.245000e+01  21.750034  19.788381
764   1  Ca  2.0  9.960000e+00  18.695180  22.832748
765   1  Ca  2.0  9.960000e+00   8.568172  16.744015
766   1  Ca  2.0  1.245000e+01   5.513318  19.788381
767   1  Ca  2.0  9.960000e+00   2.458464  22.832748
768   1  Ca  2.0  1.245000e+01  11.623026  13.699649
769   1  Ca  2.0  1.245000e+01  19.699505  25.877114
770   1  Ca  2.0  9.960000e+00  16.644651  28.921480
771   1  Ca  2.0  1.245000e+01  13.589797  31.965847
772   1  Ca  2.0  9.960000e+00  10.534943  35.010213
773   1  Ca  2.0  1.245000e+01  21.708155  31.965847
774   1  Ca  2.0  9.960000e+00  18.653301  35.010213
775   1  Ca  2.0  1.245000e+01   3.462789  25.877114
776   1  Ca  2.0  9.960000e+00   0.407935  28.921480
777   1  Ca  2.0  9.960000e+00   2.416585  35.010213
778   1  Ca  2.0  1.245000e+01  11.581147  25.877114
779   1  Ca  2.0  9.960000e+00   8.526293  28.921480
780   1  Ca  2.0  1.245000e+01   5.471439  31.965847
781   1  Ca  2.0  1.245000e+01   1.412260  31.965847
782   1  Ca  2.0  9.960000e+00  22.712480  35.010213
783   1  Ca  2.0  1.245000e+01   7.521968  25.877114
784   1  Ca  2.0  9.960000e+00   4.467114  28.921480
785   1  Ca  2.0  1.245000e+01  15.640326  25.877114
786   1  Ca  2.0  9.960000e+00  12.585472  28.921480
787   1  Ca  2.0  1.245000e+01   9.530618  31.965847
788   1  Ca  2.0  9.960000e+00   6.475764  35.010213
789   1  Ca  2.0  9.960000e+00  20.703830  28.921480
790   1  Ca  2.0  1.245000e+01  17.648976  31.965847
791   1  Ca  2.0  9.960000e+00  14.594122  35.010213
792   1  Ca  2.0  1.245000e+01  23.758684  25.877114
793   1   C  4.0  1.245000e+01  22.817178   4.566550
794   1   C  4.0  9.960000e+00  19.762324   7.610916
795   1   C  4.0  1.245000e+01  16.707470  10.655282
796   1   C  4.0  9.960000e+00   1.516957   1.522183
797   1   C  4.0  1.245000e+01   0.470753  10.655282
798   1   C  4.0  9.960000e+00   9.635316   1.522183
799   1   C  4.0  1.245000e+01   6.580461   4.566550
800   1   C  4.0  9.960000e+00   3.525607   7.610916
801   1   C  4.0  9.960000e+00  17.753674   1.522183
802   1   C  4.0  1.245000e+01  14.698820   4.566550
803   1   C  4.0  9.960000e+00  11.643966   7.610916
804   1   C  4.0  1.245000e+01   8.589111  10.655282
805   1   C  4.0  1.245000e+01   4.529932  10.655282
806   1   C  4.0  9.960000e+00  13.694495   1.522183
807   1   C  4.0  1.245000e+01  10.639641   4.566550
808   1   C  4.0  9.960000e+00   7.584786   7.610916
809   1   C  4.0  1.245000e+01  18.757999   4.566550
810   1   C  4.0  9.960000e+00  15.703145   7.610916
811   1   C  4.0  1.245000e+01  12.648291  10.655282
812   1   C  4.0  9.960000e+00  21.812853   1.522183
813   1   C  4.0  9.960000e+00  23.821503   7.610916
814   1   C  4.0  1.245000e+01  20.766649  10.655282
815   1   C  4.0  9.960000e+00   5.576136   1.522183
816   1   C  4.0  1.245000e+01   2.521282   4.566550
817   1   C  4.0  1.245000e+01  10.597761  16.744015
818   1   C  4.0  9.960000e+00   7.542907  19.788381
819   1   C  4.0  1.245000e+01   4.488053  22.832748
820   1   C  4.0  9.960000e+00  13.652616  13.699649
821   1   C  4.0  1.245000e+01  12.606411  22.832748
822   1   C  4.0  9.960000e+00  21.770974  13.699649
823   1   C  4.0  1.245000e+01  18.716120  16.744015
824   1   C  4.0  9.960000e+00  15.661266  19.788381
825   1   C  4.0  9.960000e+00   5.534257  13.699649
826   1   C  4.0  1.245000e+01   2.479403  16.744015
827   1   C  4.0  9.960000e+00  23.779624  19.788381
828   1   C  4.0  1.245000e+01  20.724770  22.832748
829   1   C  4.0  1.245000e+01  16.665591  22.832748
830   1   C  4.0  9.960000e+00   1.475078  13.699649
831   1   C  4.0  1.245000e+01  22.775299  16.744015
832   1   C  4.0  9.960000e+00  19.720445  19.788381
833   1   C  4.0  1.245000e+01   6.538582  16.744015
834   1   C  4.0  9.960000e+00   3.483728  19.788381
835   1   C  4.0  1.245000e+01   0.428874  22.832748
836   1   C  4.0  9.960000e+00   9.593436  13.699649
837   1   C  4.0  9.960000e+00  11.602086  19.788381
838   1   C  4.0  1.245000e+01   8.547232  22.832748
839   1   C  4.0  9.960000e+00  17.711795  13.699649
840   1   C  4.0  1.245000e+01  14.656941  16.744015
841   1   C  4.0  1.245000e+01  22.733420  28.921480
842   1   C  4.0  9.960000e+00  19.678566  31.965847
843   1   C  4.0  1.245000e+01  16.623712  35.010213
844   1   C  4.0  9.960000e+00   1.433199  25.877114
845   1   C  4.0  1.245000e+01   0.386995  35.010213
846   1   C  4.0  9.960000e+00   9.551557  25.877114
847   1   C  4.0  1.245000e+01   6.496703  28.921480
848   1   C  4.0  9.960000e+00   3.441849  31.965847
849   1   C  4.0  9.960000e+00  17.669916  25.877114
850   1   C  4.0  1.245000e+01  14.615061  28.921480
851   1   C  4.0  9.960000e+00  11.560207  31.965847
852   1   C  4.0  1.245000e+01   8.505353  35.010213
853   1   C  4.0  1.245000e+01   4.446174  35.010213
854   1   C  4.0  9.960000e+00  13.610736  25.877114
855   1   C  4.0  1.245000e+01  10.555882  28.921480
856   1   C  4.0  9.960000e+00   7.501028  31.965847
857   1   C  4.0  1.245000e+01  18.674241  28.921480
858   1   C  4.0  9.960000e+00  15.619387  31.965847
859   1   C  4.0  1.245000e+01  12.564532  35.010213
860   1   C  4.0  9.960000e+00  21.729095  25.877114
861   1   C  4.0  9.960000e+00  23.737745  31.965847
862   1   C  4.0  1.245000e+01  20.682891  35.010213
863   1   C  4.0  9.960000e+00   5.492378  25.877114
864   1   C  4.0  1.245000e+01   2.437524  28.921480
865   1   O -2.0  1.180011e+01  22.019861   5.361129
866   1   O -2.0  1.429011e+01  18.965007   8.405495
867   1   O -2.0  1.180011e+01  15.910153  11.449862
868   1   O -2.0  1.429011e+01   0.719640   2.316763
869   1   O -2.0  1.180011e+01  24.028511  11.449862
870   1   O -2.0  1.429011e+01   8.837999   2.316763
871   1   O -2.0  1.180011e+01   5.783144   5.361129
872   1   O -2.0  1.429011e+01   2.728290   8.405495
873   1   O -2.0  1.429011e+01  16.956357   2.316763
874   1   O -2.0  1.180011e+01  13.901503   5.361129
875   1   O -2.0  1.429011e+01  10.846649   8.405495
876   1   O -2.0  1.180011e+01   7.791795  11.449862
877   1   O -2.0  1.309989e+01   3.732615  11.449862
878   1   O -2.0  1.060989e+01  12.897178   2.316763
879   1   O -2.0  1.309989e+01   9.842324   5.361129
880   1   O -2.0  1.060989e+01   6.787470   8.405495
881   1   O -2.0  1.309989e+01  17.960682   5.361129
882   1   O -2.0  1.060989e+01  14.905828   8.405495
883   1   O -2.0  1.309989e+01  11.850974  11.449862
884   1   O -2.0  1.060989e+01  21.015536   2.316763
885   1   O -2.0  1.060989e+01  23.024186   8.405495
886   1   O -2.0  1.309989e+01  19.969332  11.449862
887   1   O -2.0  1.060989e+01   4.778819   2.316763
888   1   O -2.0  1.309989e+01   1.723965   5.361129
889   1   O -2.0  1.374978e+01  22.817178   4.566550
890   1   O -2.0  1.125978e+01  19.762324   7.610916
891   1   O -2.0  1.374978e+01  16.707470  10.655282
892   1   O -2.0  1.125978e+01   1.516957   1.522183
893   1   O -2.0  1.374978e+01   0.470753  10.655282
894   1   O -2.0  1.125978e+01   9.635316   1.522183
895   1   O -2.0  1.374978e+01   6.580461   4.566550
896   1   O -2.0  1.125978e+01   3.525607   7.610916
897   1   O -2.0  1.125978e+01  17.753674   1.522183
898   1   O -2.0  1.374978e+01  14.698820   4.566550
899   1   O -2.0  1.125978e+01  11.643966   7.610916
900   1   O -2.0  1.374978e+01   8.589111  10.655282
901   1   O -2.0  1.060989e+01  14.491812   0.727604
902   1   O -2.0  1.309989e+01  11.436957   3.771970
903   1   O -2.0  1.060989e+01   8.382103   6.816336
904   1   O -2.0  1.309989e+01   5.327249   9.860703
905   1   O -2.0  1.309989e+01  19.555316   3.771970
906   1   O -2.0  1.060989e+01  16.500462   6.816336
907   1   O -2.0  1.309989e+01  13.445607   9.860703
908   1   O -2.0  1.060989e+01  22.610170   0.727604
909   1   O -2.0  1.060989e+01   0.263745   6.816336
910   1   O -2.0  1.309989e+01  21.563966   9.860703
911   1   O -2.0  1.060989e+01   6.373453   0.727604
912   1   O -2.0  1.309989e+01   3.318599   3.771970
913   1   O -2.0  1.429011e+01  20.559641   6.816336
914   1   O -2.0  1.180011e+01  17.504787   9.860703
915   1   O -2.0  1.429011e+01   2.314274   0.727604
916   1   O -2.0  1.180011e+01  23.614495   3.771970
917   1   O -2.0  1.180011e+01   1.268070   9.860703
918   1   O -2.0  1.429011e+01  10.432632   0.727604
919   1   O -2.0  1.180011e+01   7.377778   3.771970
920   1   O -2.0  1.429011e+01   4.322924   6.816336
921   1   O -2.0  1.429011e+01  18.550991   0.727604
922   1   O -2.0  1.180011e+01  15.496137   3.771970
923   1   O -2.0  1.429011e+01  12.441282   6.816336
924   1   O -2.0  1.180011e+01   9.386428   9.860703
925   1   O -2.0  1.115022e+01   4.529932  10.655282
926   1   O -2.0  1.364022e+01  13.694495   1.522183
927   1   O -2.0  1.115022e+01  10.639641   4.566550
928   1   O -2.0  1.364022e+01   7.584786   7.610916
929   1   O -2.0  1.115022e+01  18.757999   4.566550
930   1   O -2.0  1.364022e+01  15.703145   7.610916
931   1   O -2.0  1.115022e+01  12.648291  10.655282
932   1   O -2.0  1.364022e+01  21.812853   1.522183
933   1   O -2.0  1.364022e+01  23.821503   7.610916
934   1   O -2.0  1.115022e+01  20.766649  10.655282
935   1   O -2.0  1.364022e+01   5.576136   1.522183
936   1   O -2.0  1.115022e+01   2.521282   4.566550
937   1   O -2.0  1.180011e+01   9.800445  17.538594
938   1   O -2.0  1.429011e+01   6.745590  20.582961
939   1   O -2.0  1.180011e+01   3.690736  23.627327
940   1   O -2.0  1.429011e+01  12.855299  14.494228
941   1   O -2.0  1.180011e+01  11.809095  23.627327
942   1   O -2.0  1.429011e+01  20.973657  14.494228
943   1   O -2.0  1.180011e+01  17.918803  17.538594
944   1   O -2.0  1.429011e+01  14.863949  20.582961
945   1   O -2.0  1.429011e+01   4.736940  14.494228
946   1   O -2.0  1.180011e+01   1.682086  17.538594
947   1   O -2.0  1.429011e+01  22.982307  20.582961
948   1   O -2.0  1.180011e+01  19.927453  23.627327
949   1   O -2.0  1.309989e+01  15.868274  23.627327
950   1   O -2.0  1.060989e+01   0.677761  14.494228
951   1   O -2.0  1.309989e+01  21.977982  17.538594
952   1   O -2.0  1.060989e+01  18.923128  20.582961
953   1   O -2.0  1.309989e+01   5.741265  17.538594
954   1   O -2.0  1.060989e+01   2.686411  20.582961
955   1   O -2.0  1.309989e+01  23.986632  23.627327
956   1   O -2.0  1.060989e+01   8.796120  14.494228
957   1   O -2.0  1.060989e+01  10.804770  20.582961
958   1   O -2.0  1.309989e+01   7.749915  23.627327
959   1   O -2.0  1.060989e+01  16.914478  14.494228
960   1   O -2.0  1.309989e+01  13.859624  17.538594
961   1   O -2.0  1.374978e+01  10.597761  16.744015
962   1   O -2.0  1.125978e+01   7.542907  19.788381
963   1   O -2.0  1.374978e+01   4.488053  22.832748
964   1   O -2.0  1.125978e+01  13.652616  13.699649
965   1   O -2.0  1.374978e+01  12.606411  22.832748
966   1   O -2.0  1.125978e+01  21.770974  13.699649
967   1   O -2.0  1.374978e+01  18.716120  16.744015
968   1   O -2.0  1.125978e+01  15.661266  19.788381
969   1   O -2.0  1.125978e+01   5.534257  13.699649
970   1   O -2.0  1.374978e+01   2.479403  16.744015
971   1   O -2.0  1.125978e+01  23.779624  19.788381
972   1   O -2.0  1.374978e+01  20.724770  22.832748
973   1   O -2.0  1.060989e+01   2.272395  12.905069
974   1   O -2.0  1.309989e+01  23.572616  15.949435
975   1   O -2.0  1.060989e+01  20.517762  18.993802
976   1   O -2.0  1.309989e+01  17.462908  22.038168
977   1   O -2.0  1.309989e+01   7.335899  15.949435
978   1   O -2.0  1.060989e+01   4.281045  18.993802
979   1   O -2.0  1.309989e+01   1.226191  22.038168
980   1   O -2.0  1.060989e+01  10.390753  12.905069
981   1   O -2.0  1.060989e+01  12.399403  18.993802
982   1   O -2.0  1.309989e+01   9.344549  22.038168
983   1   O -2.0  1.060989e+01  18.509112  12.905069
984   1   O -2.0  1.309989e+01  15.454257  15.949435
985   1   O -2.0  1.429011e+01   8.340224  18.993802
986   1   O -2.0  1.180011e+01   5.285370  22.038168
987   1   O -2.0  1.429011e+01  14.449932  12.905069
988   1   O -2.0  1.180011e+01  11.395078  15.949435
989   1   O -2.0  1.180011e+01  13.403728  22.038168
990   1   O -2.0  1.429011e+01  22.568291  12.905069
991   1   O -2.0  1.180011e+01  19.513437  15.949435
992   1   O -2.0  1.429011e+01  16.458583  18.993802
993   1   O -2.0  1.429011e+01   6.331574  12.905069
994   1   O -2.0  1.180011e+01   3.276720  15.949435
995   1   O -2.0  1.429011e+01   0.221866  18.993802
996   1   O -2.0  1.180011e+01  21.522087  22.038168
997   1   O -2.0  1.115022e+01  16.665591  22.832748
998   1   O -2.0  1.364022e+01   1.475078  13.699649
999   1   O -2.0  1.115022e+01  22.775299  16.744015
1000  1   O -2.0  1.364022e+01  19.720445  19.788381
1001  1   O -2.0  1.115022e+01   6.538582  16.744015
1002  1   O -2.0  1.364022e+01   3.483728  19.788381
1003  1   O -2.0  1.115022e+01   0.428874  22.832748
1004  1   O -2.0  1.364022e+01   9.593436  13.699649
1005  1   O -2.0  1.364022e+01  11.602086  19.788381
1006  1   O -2.0  1.115022e+01   8.547232  22.832748
1007  1   O -2.0  1.364022e+01  17.711795  13.699649
1008  1   O -2.0  1.115022e+01  14.656941  16.744015
1009  1   O -2.0  1.180011e+01  21.936103  29.716060
1010  1   O -2.0  1.429011e+01  18.881249  32.760426
1011  1   O -2.0  1.180011e+01  15.826395  35.804792
1012  1   O -2.0  1.429011e+01   0.635882  26.671693
1013  1   O -2.0  1.180011e+01  23.944753  35.804792
1014  1   O -2.0  1.429011e+01   8.754240  26.671693
1015  1   O -2.0  1.180011e+01   5.699386  29.716060
1016  1   O -2.0  1.429011e+01   2.644532  32.760426
1017  1   O -2.0  1.429011e+01  16.872599  26.671693
1018  1   O -2.0  1.180011e+01  13.817745  29.716060
1019  1   O -2.0  1.429011e+01  10.762890  32.760426
1020  1   O -2.0  1.180011e+01   7.708036  35.804792
1021  1   O -2.0  1.309989e+01   3.648857  35.804792
1022  1   O -2.0  1.060989e+01  12.813420  26.671693
1023  1   O -2.0  1.309989e+01   9.758565  29.716060
1024  1   O -2.0  1.060989e+01   6.703711  32.760426
1025  1   O -2.0  1.309989e+01  17.876924  29.716060
1026  1   O -2.0  1.060989e+01  14.822070  32.760426
1027  1   O -2.0  1.309989e+01  11.767215  35.804792
1028  1   O -2.0  1.060989e+01  20.931778  26.671693
1029  1   O -2.0  1.060989e+01  22.940428  32.760426
1030  1   O -2.0  1.309989e+01  19.885574  35.804792
1031  1   O -2.0  1.060989e+01   4.695061  26.671693
1032  1   O -2.0  1.309989e+01   1.640207  29.716060
1033  1   O -2.0  1.374978e+01  22.733420  28.921480
1034  1   O -2.0  1.125978e+01  19.678566  31.965847
1035  1   O -2.0  1.374978e+01  16.623712  35.010213
1036  1   O -2.0  1.125978e+01   1.433199  25.877114
1037  1   O -2.0  1.374978e+01   0.386995  35.010213
1038  1   O -2.0  1.125978e+01   9.551557  25.877114
1039  1   O -2.0  1.374978e+01   6.496703  28.921480
1040  1   O -2.0  1.125978e+01   3.441849  31.965847
1041  1   O -2.0  1.125978e+01  17.669916  25.877114
1042  1   O -2.0  1.374978e+01  14.615061  28.921480
1043  1   O -2.0  1.125978e+01  11.560207  31.965847
1044  1   O -2.0  1.374978e+01   8.505353  35.010213
1045  1   O -2.0  1.060989e+01  14.408053  25.082534
1046  1   O -2.0  1.309989e+01  11.353199  28.126901
1047  1   O -2.0  1.060989e+01   8.298345  31.171267
1048  1   O -2.0  1.309989e+01   5.243491  34.215633
1049  1   O -2.0  1.309989e+01  19.471558  28.126901
1050  1   O -2.0  1.060989e+01  16.416703  31.171267
1051  1   O -2.0  1.309989e+01  13.361849  34.215633
1052  1   O -2.0  1.060989e+01  22.526412  25.082534
1053  1   O -2.0  1.060989e+01   0.179987  31.171267
1054  1   O -2.0  1.309989e+01  21.480208  34.215633
1055  1   O -2.0  1.060989e+01   6.289695  25.082534
1056  1   O -2.0  1.309989e+01   3.234841  28.126901
1057  1   O -2.0  1.429011e+01  20.475883  31.171267
1058  1   O -2.0  1.180011e+01  17.421028  34.215633
1059  1   O -2.0  1.429011e+01   2.230516  25.082534
1060  1   O -2.0  1.180011e+01  23.530737  28.126901
1061  1   O -2.0  1.180011e+01   1.184312  34.215633
1062  1   O -2.0  1.429011e+01  10.348874  25.082534
1063  1   O -2.0  1.180011e+01   7.294020  28.126901
1064  1   O -2.0  1.429011e+01   4.239166  31.171267
1065  1   O -2.0  1.429011e+01  18.467233  25.082534
1066  1   O -2.0  1.180011e+01  15.412378  28.126901
1067  1   O -2.0  1.429011e+01  12.357524  31.171267
1068  1   O -2.0  1.180011e+01   9.302670  34.215633
1069  1   O -2.0  1.115022e+01   4.446174  35.010213
1070  1   O -2.0  1.364022e+01  13.610736  25.877114
1071  1   O -2.0  1.115022e+01  10.555882  28.921480
1072  1   O -2.0  1.364022e+01   7.501028  31.965847
1073  1   O -2.0  1.115022e+01  18.674241  28.921480
1074  1   O -2.0  1.364022e+01  15.619387  31.965847
1075  1   O -2.0  1.115022e+01  12.564532  35.010213
1076  1   O -2.0  1.364022e+01  21.729095  25.877114
1077  1   O -2.0  1.364022e+01  23.737745  31.965847
1078  1   O -2.0  1.115022e+01  20.682891  35.010213
1079  1   O -2.0  1.364022e+01   5.492378  25.877114
1080  1   O -2.0  1.115022e+01   2.437524  28.921480
1081  1  Ca  2.0  1.743000e+01  19.783263   1.522183
1082  1  Ca  2.0  1.494000e+01  16.728409   4.566550
1083  1  Ca  2.0  1.743000e+01  13.673555   7.610916
1084  1  Ca  2.0  1.494000e+01  10.618701  10.655282
1085  1  Ca  2.0  1.743000e+01  21.791913   7.610916
1086  1  Ca  2.0  1.494000e+01  18.737059  10.655282
1087  1  Ca  2.0  1.743000e+01   3.546547   1.522183
1088  1  Ca  2.0  1.494000e+01   0.491693   4.566550
1089  1  Ca  2.0  1.494000e+01   2.500343  10.655282
1090  1  Ca  2.0  1.743000e+01  11.664905   1.522183
1091  1  Ca  2.0  1.494000e+01   8.610051   4.566550
1092  1  Ca  2.0  1.743000e+01   5.555197   7.610916
1093  1  Ca  2.0  1.743000e+01   1.496018   7.610916
1094  1  Ca  2.0  1.494000e+01  22.796238  10.655282
1095  1  Ca  2.0  1.743000e+01   7.605726   1.522183
1096  1  Ca  2.0  1.494000e+01   4.550872   4.566550
1097  1  Ca  2.0  1.743000e+01  15.724084   1.522183
1098  1  Ca  2.0  1.494000e+01  12.669230   4.566550
1099  1  Ca  2.0  1.743000e+01   9.614376   7.610916
1100  1  Ca  2.0  1.494000e+01   6.559522  10.655282
1101  1  Ca  2.0  1.494000e+01  20.787588   4.566550
1102  1  Ca  2.0  1.743000e+01  17.732734   7.610916
1103  1  Ca  2.0  1.494000e+01  14.677880  10.655282
1104  1  Ca  2.0  1.743000e+01  23.842442   1.522183
1105  1  Ca  2.0  1.743000e+01   7.563847  13.699649
1106  1  Ca  2.0  1.494000e+01   4.508993  16.744015
1107  1  Ca  2.0  1.743000e+01   1.454139  19.788381
1108  1  Ca  2.0  1.494000e+01  22.754359  22.832748
1109  1  Ca  2.0  1.743000e+01   9.572497  19.788381
1110  1  Ca  2.0  1.494000e+01   6.517643  22.832748
1111  1  Ca  2.0  1.743000e+01  15.682205  13.699649
1112  1  Ca  2.0  1.494000e+01  12.627351  16.744015
1113  1  Ca  2.0  1.494000e+01  14.636001  22.832748
1114  1  Ca  2.0  1.743000e+01  23.800563  13.699649
1115  1  Ca  2.0  1.494000e+01  20.745709  16.744015
1116  1  Ca  2.0  1.743000e+01  17.690855  19.788381
1117  1  Ca  2.0  1.743000e+01  13.631676  19.788381
1118  1  Ca  2.0  1.494000e+01  10.576822  22.832748
1119  1  Ca  2.0  1.743000e+01  19.741384  13.699649
1120  1  Ca  2.0  1.494000e+01  16.686530  16.744015
1121  1  Ca  2.0  1.743000e+01   3.504668  13.699649
1122  1  Ca  2.0  1.494000e+01   0.449814  16.744015
1123  1  Ca  2.0  1.743000e+01  21.750034  19.788381
1124  1  Ca  2.0  1.494000e+01  18.695180  22.832748
1125  1  Ca  2.0  1.494000e+01   8.568172  16.744015
1126  1  Ca  2.0  1.743000e+01   5.513318  19.788381
1127  1  Ca  2.0  1.494000e+01   2.458464  22.832748
1128  1  Ca  2.0  1.743000e+01  11.623026  13.699649
1129  1  Ca  2.0  1.743000e+01  19.699505  25.877114
1130  1  Ca  2.0  1.494000e+01  16.644651  28.921480
1131  1  Ca  2.0  1.743000e+01  13.589797  31.965847
1132  1  Ca  2.0  1.494000e+01  10.534943  35.010213
1133  1  Ca  2.0  1.743000e+01  21.708155  31.965847
1134  1  Ca  2.0  1.494000e+01  18.653301  35.010213
1135  1  Ca  2.0  1.743000e+01   3.462789  25.877114
1136  1  Ca  2.0  1.494000e+01   0.407935  28.921480
1137  1  Ca  2.0  1.494000e+01   2.416585  35.010213
1138  1  Ca  2.0  1.743000e+01  11.581147  25.877114
1139  1  Ca  2.0  1.494000e+01   8.526293  28.921480
1140  1  Ca  2.0  1.743000e+01   5.471439  31.965847
1141  1  Ca  2.0  1.743000e+01   1.412260  31.965847
1142  1  Ca  2.0  1.494000e+01  22.712480  35.010213
1143  1  Ca  2.0  1.743000e+01   7.521968  25.877114
1144  1  Ca  2.0  1.494000e+01   4.467114  28.921480
1145  1  Ca  2.0  1.743000e+01  15.640326  25.877114
1146  1  Ca  2.0  1.494000e+01  12.585472  28.921480
1147  1  Ca  2.0  1.743000e+01   9.530618  31.965847
1148  1  Ca  2.0  1.494000e+01   6.475764  35.010213
1149  1  Ca  2.0  1.494000e+01  20.703830  28.921480
1150  1  Ca  2.0  1.743000e+01  17.648976  31.965847
1151  1  Ca  2.0  1.494000e+01  14.594122  35.010213
1152  1  Ca  2.0  1.743000e+01  23.758684  25.877114
1153  1   C  4.0  1.743000e+01  22.817178   4.566550
1154  1   C  4.0  1.494000e+01  19.762324   7.610916
1155  1   C  4.0  1.743000e+01  16.707470  10.655282
1156  1   C  4.0  1.494000e+01   1.516957   1.522183
1157  1   C  4.0  1.743000e+01   0.470753  10.655282
1158  1   C  4.0  1.494000e+01   9.635316   1.522183
1159  1   C  4.0  1.743000e+01   6.580461   4.566550
1160  1   C  4.0  1.494000e+01   3.525607   7.610916
1161  1   C  4.0  1.494000e+01  17.753674   1.522183
1162  1   C  4.0  1.743000e+01  14.698820   4.566550
1163  1   C  4.0  1.494000e+01  11.643966   7.610916
1164  1   C  4.0  1.743000e+01   8.589111  10.655282
1165  1   C  4.0  1.743000e+01   4.529932  10.655282
1166  1   C  4.0  1.494000e+01  13.694495   1.522183
1167  1   C  4.0  1.743000e+01  10.639641   4.566550
1168  1   C  4.0  1.494000e+01   7.584786   7.610916
1169  1   C  4.0  1.743000e+01  18.757999   4.566550
1170  1   C  4.0  1.494000e+01  15.703145   7.610916
1171  1   C  4.0  1.743000e+01  12.648291  10.655282
1172  1   C  4.0  1.494000e+01  21.812853   1.522183
1173  1   C  4.0  1.494000e+01  23.821503   7.610916
1174  1   C  4.0  1.743000e+01  20.766649  10.655282
1175  1   C  4.0  1.494000e+01   5.576136   1.522183
1176  1   C  4.0  1.743000e+01   2.521282   4.566550
1177  1   C  4.0  1.743000e+01  10.597761  16.744015
1178  1   C  4.0  1.494000e+01   7.542907  19.788381
1179  1   C  4.0  1.743000e+01   4.488053  22.832748
1180  1   C  4.0  1.494000e+01  13.652616  13.699649
1181  1   C  4.0  1.743000e+01  12.606411  22.832748
1182  1   C  4.0  1.494000e+01  21.770974  13.699649
1183  1   C  4.0  1.743000e+01  18.716120  16.744015
1184  1   C  4.0  1.494000e+01  15.661266  19.788381
1185  1   C  4.0  1.494000e+01   5.534257  13.699649
1186  1   C  4.0  1.743000e+01   2.479403  16.744015
1187  1   C  4.0  1.494000e+01  23.779624  19.788381
1188  1   C  4.0  1.743000e+01  20.724770  22.832748
1189  1   C  4.0  1.743000e+01  16.665591  22.832748
1190  1   C  4.0  1.494000e+01   1.475078  13.699649
1191  1   C  4.0  1.743000e+01  22.775299  16.744015
1192  1   C  4.0  1.494000e+01  19.720445  19.788381
1193  1   C  4.0  1.743000e+01   6.538582  16.744015
1194  1   C  4.0  1.494000e+01   3.483728  19.788381
1195  1   C  4.0  1.743000e+01   0.428874  22.832748
1196  1   C  4.0  1.494000e+01   9.593436  13.699649
1197  1   C  4.0  1.494000e+01  11.602086  19.788381
1198  1   C  4.0  1.743000e+01   8.547232  22.832748
1199  1   C  4.0  1.494000e+01  17.711795  13.699649
1200  1   C  4.0  1.743000e+01  14.656941  16.744015
1201  1   C  4.0  1.743000e+01  22.733420  28.921480
1202  1   C  4.0  1.494000e+01  19.678566  31.965847
1203  1   C  4.0  1.743000e+01  16.623712  35.010213
1204  1   C  4.0  1.494000e+01   1.433199  25.877114
1205  1   C  4.0  1.743000e+01   0.386995  35.010213
1206  1   C  4.0  1.494000e+01   9.551557  25.877114
1207  1   C  4.0  1.743000e+01   6.496703  28.921480
1208  1   C  4.0  1.494000e+01   3.441849  31.965847
1209  1   C  4.0  1.494000e+01  17.669916  25.877114
1210  1   C  4.0  1.743000e+01  14.615061  28.921480
1211  1   C  4.0  1.494000e+01  11.560207  31.965847
1212  1   C  4.0  1.743000e+01   8.505353  35.010213
1213  1   C  4.0  1.743000e+01   4.446174  35.010213
1214  1   C  4.0  1.494000e+01  13.610736  25.877114
1215  1   C  4.0  1.743000e+01  10.555882  28.921480
1216  1   C  4.0  1.494000e+01   7.501028  31.965847
1217  1   C  4.0  1.743000e+01  18.674241  28.921480
1218  1   C  4.0  1.494000e+01  15.619387  31.965847
1219  1   C  4.0  1.743000e+01  12.564532  35.010213
1220  1   C  4.0  1.494000e+01  21.729095  25.877114
1221  1   C  4.0  1.494000e+01  23.737745  31.965847
1222  1   C  4.0  1.743000e+01  20.682891  35.010213
1223  1   C  4.0  1.494000e+01   5.492378  25.877114
1224  1   C  4.0  1.743000e+01   2.437524  28.921480
1225  1   O -2.0  1.678011e+01  22.019861   5.361129
1226  1   O -2.0  1.927011e+01  18.965007   8.405495
1227  1   O -2.0  1.678011e+01  15.910153  11.449862
1228  1   O -2.0  1.927011e+01   0.719640   2.316763
1229  1   O -2.0  1.678011e+01  24.028511  11.449862
1230  1   O -2.0  1.927011e+01   8.837999   2.316763
1231  1   O -2.0  1.678011e+01   5.783144   5.361129
1232  1   O -2.0  1.927011e+01   2.728290   8.405495
1233  1   O -2.0  1.927011e+01  16.956357   2.316763
1234  1   O -2.0  1.678011e+01  13.901503   5.361129
1235  1   O -2.0  1.927011e+01  10.846649   8.405495
1236  1   O -2.0  1.678011e+01   7.791795  11.449862
1237  1   O -2.0  1.807989e+01   3.732615  11.449862
1238  1   O -2.0  1.558989e+01  12.897178   2.316763
1239  1   O -2.0  1.807989e+01   9.842324   5.361129
1240  1   O -2.0  1.558989e+01   6.787470   8.405495
1241  1   O -2.0  1.807989e+01  17.960682   5.361129
1242  1   O -2.0  1.558989e+01  14.905828   8.405495
1243  1   O -2.0  1.807989e+01  11.850974  11.449862
1244  1   O -2.0  1.558989e+01  21.015536   2.316763
1245  1   O -2.0  1.558989e+01  23.024186   8.405495
1246  1   O -2.0  1.807989e+01  19.969332  11.449862
1247  1   O -2.0  1.558989e+01   4.778819   2.316763
1248  1   O -2.0  1.807989e+01   1.723965   5.361129
1249  1   O -2.0  1.872978e+01  22.817178   4.566550
1250  1   O -2.0  1.623978e+01  19.762324   7.610916
1251  1   O -2.0  1.872978e+01  16.707470  10.655282
1252  1   O -2.0  1.623978e+01   1.516957   1.522183
1253  1   O -2.0  1.872978e+01   0.470753  10.655282
1254  1   O -2.0  1.623978e+01   9.635316   1.522183
1255  1   O -2.0  1.872978e+01   6.580461   4.566550
1256  1   O -2.0  1.623978e+01   3.525607   7.610916
1257  1   O -2.0  1.623978e+01  17.753674   1.522183
1258  1   O -2.0  1.872978e+01  14.698820   4.566550
1259  1   O -2.0  1.623978e+01  11.643966   7.610916
1260  1   O -2.0  1.872978e+01   8.589111  10.655282
1261  1   O -2.0  1.558989e+01  14.491812   0.727604
1262  1   O -2.0  1.807989e+01  11.436957   3.771970
1263  1   O -2.0  1.558989e+01   8.382103   6.816336
1264  1   O -2.0  1.807989e+01   5.327249   9.860703
1265  1   O -2.0  1.807989e+01  19.555316   3.771970
1266  1   O -2.0  1.558989e+01  16.500462   6.816336
1267  1   O -2.0  1.807989e+01  13.445607   9.860703
1268  1   O -2.0  1.558989e+01  22.610170   0.727604
1269  1   O -2.0  1.558989e+01   0.263745   6.816336
1270  1   O -2.0  1.807989e+01  21.563966   9.860703
1271  1   O -2.0  1.558989e+01   6.373453   0.727604
1272  1   O -2.0  1.807989e+01   3.318599   3.771970
1273  1   O -2.0  1.927011e+01  20.559641   6.816336
1274  1   O -2.0  1.678011e+01  17.504787   9.860703
1275  1   O -2.0  1.927011e+01   2.314274   0.727604
1276  1   O -2.0  1.678011e+01  23.614495   3.771970
1277  1   O -2.0  1.678011e+01   1.268070   9.860703
1278  1   O -2.0  1.927011e+01  10.432632   0.727604
1279  1   O -2.0  1.678011e+01   7.377778   3.771970
1280  1   O -2.0  1.927011e+01   4.322924   6.816336
1281  1   O -2.0  1.927011e+01  18.550991   0.727604
1282  1   O -2.0  1.678011e+01  15.496137   3.771970
1283  1   O -2.0  1.927011e+01  12.441282   6.816336
1284  1   O -2.0  1.678011e+01   9.386428   9.860703
1285  1   O -2.0  1.613022e+01   4.529932  10.655282
1286  1   O -2.0  1.862022e+01  13.694495   1.522183
1287  1   O -2.0  1.613022e+01  10.639641   4.566550
1288  1   O -2.0  1.862022e+01   7.584786   7.610916
1289  1   O -2.0  1.613022e+01  18.757999   4.566550
1290  1   O -2.0  1.862022e+01  15.703145   7.610916
1291  1   O -2.0  1.613022e+01  12.648291  10.655282
1292  1   O -2.0  1.862022e+01  21.812853   1.522183
1293  1   O -2.0  1.862022e+01  23.821503   7.610916
1294  1   O -2.0  1.613022e+01  20.766649  10.655282
1295  1   O -2.0  1.862022e+01   5.576136   1.522183
1296  1   O -2.0  1.613022e+01   2.521282   4.566550
1297  1   O -2.0  1.678011e+01   9.800445  17.538594
1298  1   O -2.0  1.927011e+01   6.745590  20.582961
1299  1   O -2.0  1.678011e+01   3.690736  23.627327
1300  1   O -2.0  1.927011e+01  12.855299  14.494228
1301  1   O -2.0  1.678011e+01  11.809095  23.627327
1302  1   O -2.0  1.927011e+01  20.973657  14.494228
1303  1   O -2.0  1.678011e+01  17.918803  17.538594
1304  1   O -2.0  1.927011e+01  14.863949  20.582961
1305  1   O -2.0  1.927011e+01   4.736940  14.494228
1306  1   O -2.0  1.678011e+01   1.682086  17.538594
1307  1   O -2.0  1.927011e+01  22.982307  20.582961
1308  1   O -2.0  1.678011e+01  19.927453  23.627327
1309  1   O -2.0  1.807989e+01  15.868274  23.627327
1310  1   O -2.0  1.558989e+01   0.677761  14.494228
1311  1   O -2.0  1.807989e+01  21.977982  17.538594
1312  1   O -2.0  1.558989e+01  18.923128  20.582961
1313  1   O -2.0  1.807989e+01   5.741265  17.538594
1314  1   O -2.0  1.558989e+01   2.686411  20.582961
1315  1   O -2.0  1.807989e+01  23.986632  23.627327
1316  1   O -2.0  1.558989e+01   8.796120  14.494228
1317  1   O -2.0  1.558989e+01  10.804770  20.582961
1318  1   O -2.0  1.807989e+01   7.749915  23.627327
1319  1   O -2.0  1.558989e+01  16.914478  14.494228
1320  1   O -2.0  1.807989e+01  13.859624  17.538594
1321  1   O -2.0  1.872978e+01  10.597761  16.744015
1322  1   O -2.0  1.623978e+01   7.542907  19.788381
1323  1   O -2.0  1.872978e+01   4.488053  22.832748
1324  1   O -2.0  1.623978e+01  13.652616  13.699649
1325  1   O -2.0  1.872978e+01  12.606411  22.832748
1326  1   O -2.0  1.623978e+01  21.770974  13.699649
1327  1   O -2.0  1.872978e+01  18.716120  16.744015
1328  1   O -2.0  1.623978e+01  15.661266  19.788381
1329  1   O -2.0  1.623978e+01   5.534257  13.699649
1330  1   O -2.0  1.872978e+01   2.479403  16.744015
1331  1   O -2.0  1.623978e+01  23.779624  19.788381
1332  1   O -2.0  1.872978e+01  20.724770  22.832748
1333  1   O -2.0  1.558989e+01   2.272395  12.905069
1334  1   O -2.0  1.807989e+01  23.572616  15.949435
1335  1   O -2.0  1.558989e+01  20.517762  18.993802
1336  1   O -2.0  1.807989e+01  17.462908  22.038168
1337  1   O -2.0  1.807989e+01   7.335899  15.949435
1338  1   O -2.0  1.558989e+01   4.281045  18.993802
1339  1   O -2.0  1.807989e+01   1.226191  22.038168
1340  1   O -2.0  1.558989e+01  10.390753  12.905069
1341  1   O -2.0  1.558989e+01  12.399403  18.993802
1342  1   O -2.0  1.807989e+01   9.344549  22.038168
1343  1   O -2.0  1.558989e+01  18.509112  12.905069
1344  1   O -2.0  1.807989e+01  15.454257  15.949435
1345  1   O -2.0  1.927011e+01   8.340224  18.993802
1346  1   O -2.0  1.678011e+01   5.285370  22.038168
1347  1   O -2.0  1.927011e+01  14.449932  12.905069
1348  1   O -2.0  1.678011e+01  11.395078  15.949435
1349  1   O -2.0  1.678011e+01  13.403728  22.038168
1350  1   O -2.0  1.927011e+01  22.568291  12.905069
1351  1   O -2.0  1.678011e+01  19.513437  15.949435
1352  1   O -2.0  1.927011e+01  16.458583  18.993802
1353  1   O -2.0  1.927011e+01   6.331574  12.905069
1354  1   O -2.0  1.678011e+01   3.276720  15.949435
1355  1   O -2.0  1.927011e+01   0.221866  18.993802
1356  1   O -2.0  1.678011e+01  21.522087  22.038168
1357  1   O -2.0  1.613022e+01  16.665591  22.832748
1358  1   O -2.0  1.862022e+01   1.475078  13.699649
1359  1   O -2.0  1.613022e+01  22.775299  16.744015
1360  1   O -2.0  1.862022e+01  19.720445  19.788381
1361  1   O -2.0  1.613022e+01   6.538582  16.744015
1362  1   O -2.0  1.862022e+01   3.483728  19.788381
1363  1   O -2.0  1.613022e+01   0.428874  22.832748
1364  1   O -2.0  1.862022e+01   9.593436  13.699649
1365  1   O -2.0  1.862022e+01  11.602086  19.788381
1366  1   O -2.0  1.613022e+01   8.547232  22.832748
1367  1   O -2.0  1.862022e+01  17.711795  13.699649
1368  1   O -2.0  1.613022e+01  14.656941  16.744015
1369  1   O -2.0  1.678011e+01  21.936103  29.716060
1370  1   O -2.0  1.927011e+01  18.881249  32.760426
1371  1   O -2.0  1.678011e+01  15.826395  35.804792
1372  1   O -2.0  1.927011e+01   0.635882  26.671693
1373  1   O -2.0  1.678011e+01  23.944753  35.804792
1374  1   O -2.0  1.927011e+01   8.754240  26.671693
1375  1   O -2.0  1.678011e+01   5.699386  29.716060
1376  1   O -2.0  1.927011e+01   2.644532  32.760426
1377  1   O -2.0  1.927011e+01  16.872599  26.671693
1378  1   O -2.0  1.678011e+01  13.817745  29.716060
1379  1   O -2.0  1.927011e+01  10.762890  32.760426
1380  1   O -2.0  1.678011e+01   7.708036  35.804792
1381  1   O -2.0  1.807989e+01   3.648857  35.804792
1382  1   O -2.0  1.558989e+01  12.813420  26.671693
1383  1   O -2.0  1.807989e+01   9.758565  29.716060
1384  1   O -2.0  1.558989e+01   6.703711  32.760426
1385  1   O -2.0  1.807989e+01  17.876924  29.716060
1386  1   O -2.0  1.558989e+01  14.822070  32.760426
1387  1   O -2.0  1.807989e+01  11.767215  35.804792
1388  1   O -2.0  1.558989e+01  20.931778  26.671693
1389  1   O -2.0  1.558989e+01  22.940428  32.760426
1390  1   O -2.0  1.807989e+01  19.885574  35.804792
1391  1   O -2.0  1.558989e+01   4.695061  26.671693
1392  1   O -2.0  1.807989e+01   1.640207  29.716060
1393  1   O -2.0  1.872978e+01  22.733420  28.921480
1394  1   O -2.0  1.623978e+01  19.678566  31.965847
1395  1   O -2.0  1.872978e+01  16.623712  35.010213
1396  1   O -2.0  1.623978e+01   1.433199  25.877114
1397  1   O -2.0  1.872978e+01   0.386995  35.010213
1398  1   O -2.0  1.623978e+01   9.551557  25.877114
1399  1   O -2.0  1.872978e+01   6.496703  28.921480
1400  1   O -2.0  1.623978e+01   3.441849  31.965847
1401  1   O -2.0  1.623978e+01  17.669916  25.877114
1402  1   O -2.0  1.872978e+01  14.615061  28.921480
1403  1   O -2.0  1.623978e+01  11.560207  31.965847
1404  1   O -2.0  1.872978e+01   8.505353  35.010213
1405  1   O -2.0  1.558989e+01  14.408053  25.082534
1406  1   O -2.0  1.807989e+01  11.353199  28.126901
1407  1   O -2.0  1.558989e+01   8.298345  31.171267
1408  1   O -2.0  1.807989e+01   5.243491  34.215633
1409  1   O -2.0  1.807989e+01  19.471558  28.126901
1410  1   O -2.0  1.558989e+01  16.416703  31.171267
1411  1   O -2.0  1.807989e+01  13.361849  34.215633
1412  1   O -2.0  1.558989e+01  22.526412  25.082534
1413  1   O -2.0  1.558989e+01   0.179987  31.171267
1414  1   O -2.0  1.807989e+01  21.480208  34.215633
1415  1   O -2.0  1.558989e+01   6.289695  25.082534
1416  1   O -2.0  1.807989e+01   3.234841  28.126901
1417  1   O -2.0  1.927011e+01  20.475883  31.171267
1418  1   O -2.0  1.678011e+01  17.421028  34.215633
1419  1   O -2.0  1.927011e+01   2.230516  25.082534
1420  1   O -2.0  1.678011e+01  23.530737  28.126901
1421  1   O -2.0  1.678011e+01   1.184312  34.215633
1422  1   O -2.0  1.927011e+01  10.348874  25.082534
1423  1   O -2.0  1.678011e+01   7.294020  28.126901
1424  1   O -2.0  1.927011e+01   4.239166  31.171267
1425  1   O -2.0  1.927011e+01  18.467233  25.082534
1426  1   O -2.0  1.678011e+01  15.412378  28.126901
1427  1   O -2.0  1.927011e+01  12.357524  31.171267
1428  1   O -2.0  1.678011e+01   9.302670  34.215633
1429  1   O -2.0  1.613022e+01   4.446174  35.010213
1430  1   O -2.0  1.862022e+01  13.610736  25.877114
1431  1   O -2.0  1.613022e+01  10.555882  28.921480
1432  1   O -2.0  1.862022e+01   7.501028  31.965847
1433  1   O -2.0  1.613022e+01  18.674241  28.921480
1434  1   O -2.0  1.862022e+01  15.619387  31.965847
1435  1   O -2.0  1.613022e+01  12.564532  35.010213
1436  1   O -2.0  1.862022e+01  21.729095  25.877114
1437  1   O -2.0  1.862022e+01  23.737745  31.965847
1438  1   O -2.0  1.613022e+01  20.682891  35.010213
1439  1   O -2.0  1.862022e+01   5.492378  25.877114
1440  1   O -2.0  1.613022e+01   2.437524  28.921480
1441  1  Ca  2.0  2.241000e+01  19.783263   1.522183
1442  1  Ca  2.0  1.992000e+01  16.728409   4.566550
1443  1  Ca  2.0  2.241000e+01  13.673555   7.610916
1444  1  Ca  2.0  1.992000e+01  10.618701  10.655282
1445  1  Ca  2.0  2.241000e+01  21.791913   7.610916
1446  1  Ca  2.0  1.992000e+01  18.737059  10.655282
1447  1  Ca  2.0  2.241000e+01   3.546547   1.522183
1448  1  Ca  2.0  1.992000e+01   0.491693   4.566550
1449  1  Ca  2.0  1.992000e+01   2.500343  10.655282
1450  1  Ca  2.0  2.241000e+01  11.664905   1.522183
1451  1  Ca  2.0  1.992000e+01   8.610051   4.566550
1452  1  Ca  2.0  2.241000e+01   5.555197   7.610916
1453  1  Ca  2.0  2.241000e+01   1.496018   7.610916
1454  1  Ca  2.0  1.992000e+01  22.796238  10.655282
1455  1  Ca  2.0  2.241000e+01   7.605726   1.522183
1456  1  Ca  2.0  1.992000e+01   4.550872   4.566550
1457  1  Ca  2.0  2.241000e+01  15.724084   1.522183
1458  1  Ca  2.0  1.992000e+01  12.669230   4.566550
1459  1  Ca  2.0  2.241000e+01   9.614376   7.610916
1460  1  Ca  2.0  1.992000e+01   6.559522  10.655282
1461  1  Ca  2.0  1.992000e+01  20.787588   4.566550
1462  1  Ca  2.0  2.241000e+01  17.732734   7.610916
1463  1  Ca  2.0  1.992000e+01  14.677880  10.655282
1464  1  Ca  2.0  2.241000e+01  23.842442   1.522183
1465  1  Ca  2.0  2.241000e+01   7.563847  13.699649
1466  1  Ca  2.0  1.992000e+01   4.508993  16.744015
1467  1  Ca  2.0  2.241000e+01   1.454139  19.788381
1468  1  Ca  2.0  1.992000e+01  22.754359  22.832748
1469  1  Ca  2.0  2.241000e+01   9.572497  19.788381
1470  1  Ca  2.0  1.992000e+01   6.517643  22.832748
1471  1  Ca  2.0  2.241000e+01  15.682205  13.699649
1472  1  Ca  2.0  1.992000e+01  12.627351  16.744015
1473  1  Ca  2.0  1.992000e+01  14.636001  22.832748
1474  1  Ca  2.0  2.241000e+01  23.800563  13.699649
1475  1  Ca  2.0  1.992000e+01  20.745709  16.744015
1476  1  Ca  2.0  2.241000e+01  17.690855  19.788381
1477  1  Ca  2.0  2.241000e+01  13.631676  19.788381
1478  1  Ca  2.0  1.992000e+01  10.576822  22.832748
1479  1  Ca  2.0  2.241000e+01  19.741384  13.699649
1480  1  Ca  2.0  1.992000e+01  16.686530  16.744015
1481  1  Ca  2.0  2.241000e+01   3.504668  13.699649
1482  1  Ca  2.0  1.992000e+01   0.449814  16.744015
1483  1  Ca  2.0  2.241000e+01  21.750034  19.788381
1484  1  Ca  2.0  1.992000e+01  18.695180  22.832748
1485  1  Ca  2.0  1.992000e+01   8.568172  16.744015
1486  1  Ca  2.0  2.241000e+01   5.513318  19.788381
1487  1  Ca  2.0  1.992000e+01   2.458464  22.832748
1488  1  Ca  2.0  2.241000e+01  11.623026  13.699649
1489  1  Ca  2.0  2.241000e+01  19.699505  25.877114
1490  1  Ca  2.0  1.992000e+01  16.644651  28.921480
1491  1  Ca  2.0  2.241000e+01  13.589797  31.965847
1492  1  Ca  2.0  1.992000e+01  10.534943  35.010213
1493  1  Ca  2.0  2.241000e+01  21.708155  31.965847
1494  1  Ca  2.0  1.992000e+01  18.653301  35.010213
1495  1  Ca  2.0  2.241000e+01   3.462789  25.877114
1496  1  Ca  2.0  1.992000e+01   0.407935  28.921480
1497  1  Ca  2.0  1.992000e+01   2.416585  35.010213
1498  1  Ca  2.0  2.241000e+01  11.581147  25.877114
1499  1  Ca  2.0  1.992000e+01   8.526293  28.921480
1500  1  Ca  2.0  2.241000e+01   5.471439  31.965847
1501  1  Ca  2.0  2.241000e+01   1.412260  31.965847
1502  1  Ca  2.0  1.992000e+01  22.712480  35.010213
1503  1  Ca  2.0  2.241000e+01   7.521968  25.877114
1504  1  Ca  2.0  1.992000e+01   4.467114  28.921480
1505  1  Ca  2.0  2.241000e+01  15.640326  25.877114
1506  1  Ca  2.0  1.992000e+01  12.585472  28.921480
1507  1  Ca  2.0  2.241000e+01   9.530618  31.965847
1508  1  Ca  2.0  1.992000e+01   6.475764  35.010213
1509  1  Ca  2.0  1.992000e+01  20.703830  28.921480
1510  1  Ca  2.0  2.241000e+01  17.648976  31.965847
1511  1  Ca  2.0  1.992000e+01  14.594122  35.010213
1512  1  Ca  2.0  2.241000e+01  23.758684  25.877114
1513  1   C  4.0  2.241000e+01  22.817178   4.566550
1514  1   C  4.0  1.992000e+01  19.762324   7.610916
1515  1   C  4.0  2.241000e+01  16.707470  10.655282
1516  1   C  4.0  1.992000e+01   1.516957   1.522183
1517  1   C  4.0  2.241000e+01   0.470753  10.655282
1518  1   C  4.0  1.992000e+01   9.635316   1.522183
1519  1   C  4.0  2.241000e+01   6.580461   4.566550
1520  1   C  4.0  1.992000e+01   3.525607   7.610916
1521  1   C  4.0  1.992000e+01  17.753674   1.522183
1522  1   C  4.0  2.241000e+01  14.698820   4.566550
1523  1   C  4.0  1.992000e+01  11.643966   7.610916
1524  1   C  4.0  2.241000e+01   8.589111  10.655282
1525  1   C  4.0  2.241000e+01   4.529932  10.655282
1526  1   C  4.0  1.992000e+01  13.694495   1.522183
1527  1   C  4.0  2.241000e+01  10.639641   4.566550
1528  1   C  4.0  1.992000e+01   7.584786   7.610916
1529  1   C  4.0  2.241000e+01  18.757999   4.566550
1530  1   C  4.0  1.992000e+01  15.703145   7.610916
1531  1   C  4.0  2.241000e+01  12.648291  10.655282
1532  1   C  4.0  1.992000e+01  21.812853   1.522183
1533  1   C  4.0  1.992000e+01  23.821503   7.610916
1534  1   C  4.0  2.241000e+01  20.766649  10.655282
1535  1   C  4.0  1.992000e+01   5.576136   1.522183
1536  1   C  4.0  2.241000e+01   2.521282   4.566550
1537  1   C  4.0  2.241000e+01  10.597761  16.744015
1538  1   C  4.0  1.992000e+01   7.542907  19.788381
1539  1   C  4.0  2.241000e+01   4.488053  22.832748
1540  1   C  4.0  1.992000e+01  13.652616  13.699649
1541  1   C  4.0  2.241000e+01  12.606411  22.832748
1542  1   C  4.0  1.992000e+01  21.770974  13.699649
1543  1   C  4.0  2.241000e+01  18.716120  16.744015
1544  1   C  4.0  1.992000e+01  15.661266  19.788381
1545  1   C  4.0  1.992000e+01   5.534257  13.699649
1546  1   C  4.0  2.241000e+01   2.479403  16.744015
1547  1   C  4.0  1.992000e+01  23.779624  19.788381
1548  1   C  4.0  2.241000e+01  20.724770  22.832748
1549  1   C  4.0  2.241000e+01  16.665591  22.832748
1550  1   C  4.0  1.992000e+01   1.475078  13.699649
1551  1   C  4.0  2.241000e+01  22.775299  16.744015
1552  1   C  4.0  1.992000e+01  19.720445  19.788381
1553  1   C  4.0  2.241000e+01   6.538582  16.744015
1554  1   C  4.0  1.992000e+01   3.483728  19.788381
1555  1   C  4.0  2.241000e+01   0.428874  22.832748
1556  1   C  4.0  1.992000e+01   9.593436  13.699649
1557  1   C  4.0  1.992000e+01  11.602086  19.788381
1558  1   C  4.0  2.241000e+01   8.547232  22.832748
1559  1   C  4.0  1.992000e+01  17.711795  13.699649
1560  1   C  4.0  2.241000e+01  14.656941  16.744015
1561  1   C  4.0  2.241000e+01  22.733420  28.921480
1562  1   C  4.0  1.992000e+01  19.678566  31.965847
1563  1   C  4.0  2.241000e+01  16.623712  35.010213
1564  1   C  4.0  1.992000e+01   1.433199  25.877114
1565  1   C  4.0  2.241000e+01   0.386995  35.010213
1566  1   C  4.0  1.992000e+01   9.551557  25.877114
1567  1   C  4.0  2.241000e+01   6.496703  28.921480
1568  1   C  4.0  1.992000e+01   3.441849  31.965847
1569  1   C  4.0  1.992000e+01  17.669916  25.877114
1570  1   C  4.0  2.241000e+01  14.615061  28.921480
1571  1   C  4.0  1.992000e+01  11.560207  31.965847
1572  1   C  4.0  2.241000e+01   8.505353  35.010213
1573  1   C  4.0  2.241000e+01   4.446174  35.010213
1574  1   C  4.0  1.992000e+01  13.610736  25.877114
1575  1   C  4.0  2.241000e+01  10.555882  28.921480
1576  1   C  4.0  1.992000e+01   7.501028  31.965847
1577  1   C  4.0  2.241000e+01  18.674241  28.921480
1578  1   C  4.0  1.992000e+01  15.619387  31.965847
1579  1   C  4.0  2.241000e+01  12.564532  35.010213
1580  1   C  4.0  1.992000e+01  21.729095  25.877114
1581  1   C  4.0  1.992000e+01  23.737745  31.965847
1582  1   C  4.0  2.241000e+01  20.682891  35.010213
1583  1   C  4.0  1.992000e+01   5.492378  25.877114
1584  1   C  4.0  2.241000e+01   2.437524  28.921480
1585  1   O -2.0  2.176011e+01  22.019861   5.361129
1586  1   O -2.0  2.425011e+01  18.965007   8.405495
1587  1   O -2.0  2.176011e+01  15.910153  11.449862
1588  1   O -2.0  2.425011e+01   0.719640   2.316763
1589  1   O -2.0  2.176011e+01  24.028511  11.449862
1590  1   O -2.0  2.425011e+01   8.837999   2.316763
1591  1   O -2.0  2.176011e+01   5.783144   5.361129
1592  1   O -2.0  2.425011e+01   2.728290   8.405495
1593  1   O -2.0  2.425011e+01  16.956357   2.316763
1594  1   O -2.0  2.176011e+01  13.901503   5.361129
1595  1   O -2.0  2.425011e+01  10.846649   8.405495
1596  1   O -2.0  2.176011e+01   7.791795  11.449862
1597  1   O -2.0  2.305989e+01   3.732615  11.449862
1598  1   O -2.0  2.056989e+01  12.897178   2.316763
1599  1   O -2.0  2.305989e+01   9.842324   5.361129
1600  1   O -2.0  2.056989e+01   6.787470   8.405495
1601  1   O -2.0  2.305989e+01  17.960682   5.361129
1602  1   O -2.0  2.056989e+01  14.905828   8.405495
1603  1   O -2.0  2.305989e+01  11.850974  11.449862
1604  1   O -2.0  2.056989e+01  21.015536   2.316763
1605  1   O -2.0  2.056989e+01  23.024186   8.405495
1606  1   O -2.0  2.305989e+01  19.969332  11.449862
1607  1   O -2.0  2.056989e+01   4.778819   2.316763
1608  1   O -2.0  2.305989e+01   1.723965   5.361129
1609  1   O -2.0  2.370978e+01  22.817178   4.566550
1610  1   O -2.0  2.121978e+01  19.762324   7.610916
1611  1   O -2.0  2.370978e+01  16.707470  10.655282
1612  1   O -2.0  2.121978e+01   1.516957   1.522183
1613  1   O -2.0  2.370978e+01   0.470753  10.655282
1614  1   O -2.0  2.121978e+01   9.635316   1.522183
1615  1   O -2.0  2.370978e+01   6.580461   4.566550
1616  1   O -2.0  2.121978e+01   3.525607   7.610916
1617  1   O -2.0  2.121978e+01  17.753674   1.522183
1618  1   O -2.0  2.370978e+01  14.698820   4.566550
1619  1   O -2.0  2.121978e+01  11.643966   7.610916
1620  1   O -2.0  2.370978e+01   8.589111  10.655282
1621  1   O -2.0  2.056989e+01  14.491812   0.727604
1622  1   O -2.0  2.305989e+01  11.436957   3.771970
1623  1   O -2.0  2.056989e+01   8.382103   6.816336
1624  1   O -2.0  2.305989e+01   5.327249   9.860703
1625  1   O -2.0  2.305989e+01  19.555316   3.771970
1626  1   O -2.0  2.056989e+01  16.500462   6.816336
1627  1   O -2.0  2.305989e+01  13.445607   9.860703
1628  1   O -2.0  2.056989e+01  22.610170   0.727604
1629  1   O -2.0  2.056989e+01   0.263745   6.816336
1630  1   O -2.0  2.305989e+01  21.563966   9.860703
1631  1   O -2.0  2.056989e+01   6.373453   0.727604
1632  1   O -2.0  2.305989e+01   3.318599   3.771970
1633  1   O -2.0  2.425011e+01  20.559641   6.816336
1634  1   O -2.0  2.176011e+01  17.504787   9.860703
1635  1   O -2.0  2.425011e+01   2.314274   0.727604
1636  1   O -2.0  2.176011e+01  23.614495   3.771970
1637  1   O -2.0  2.176011e+01   1.268070   9.860703
1638  1   O -2.0  2.425011e+01  10.432632   0.727604
1639  1   O -2.0  2.176011e+01   7.377778   3.771970
1640  1   O -2.0  2.425011e+01   4.322924   6.816336
1641  1   O -2.0  2.425011e+01  18.550991   0.727604
1642  1   O -2.0  2.176011e+01  15.496137   3.771970
1643  1   O -2.0  2.425011e+01  12.441282   6.816336
1644  1   O -2.0  2.176011e+01   9.386428   9.860703
1645  1   O -2.0  2.111022e+01   4.529932  10.655282
1646  1   O -2.0  2.360022e+01  13.694495   1.522183
1647  1   O -2.0  2.111022e+01  10.639641   4.566550
1648  1   O -2.0  2.360022e+01   7.584786   7.610916
1649  1   O -2.0  2.111022e+01  18.757999   4.566550
1650  1   O -2.0  2.360022e+01  15.703145   7.610916
1651  1   O -2.0  2.111022e+01  12.648291  10.655282
1652  1   O -2.0  2.360022e+01  21.812853   1.522183
1653  1   O -2.0  2.360022e+01  23.821503   7.610916
1654  1   O -2.0  2.111022e+01  20.766649  10.655282
1655  1   O -2.0  2.360022e+01   5.576136   1.522183
1656  1   O -2.0  2.111022e+01   2.521282   4.566550
1657  1   O -2.0  2.176011e+01   9.800445  17.538594
1658  1   O -2.0  2.425011e+01   6.745590  20.582961
1659  1   O -2.0  2.176011e+01   3.690736  23.627327
1660  1   O -2.0  2.425011e+01  12.855299  14.494228
1661  1   O -2.0  2.176011e+01  11.809095  23.627327
1662  1   O -2.0  2.425011e+01  20.973657  14.494228
1663  1   O -2.0  2.176011e+01  17.918803  17.538594
1664  1   O -2.0  2.425011e+01  14.863949  20.582961
1665  1   O -2.0  2.425011e+01   4.736940  14.494228
1666  1   O -2.0  2.176011e+01   1.682086  17.538594
1667  1   O -2.0  2.425011e+01  22.982307  20.582961
1668  1   O -2.0  2.176011e+01  19.927453  23.627327
1669  1   O -2.0  2.305989e+01  15.868274  23.627327
1670  1   O -2.0  2.056989e+01   0.677761  14.494228
1671  1   O -2.0  2.305989e+01  21.977982  17.538594
1672  1   O -2.0  2.056989e+01  18.923128  20.582961
1673  1   O -2.0  2.305989e+01   5.741265  17.538594
1674  1   O -2.0  2.056989e+01   2.686411  20.582961
1675  1   O -2.0  2.305989e+01  23.986632  23.627327
1676  1   O -2.0  2.056989e+01   8.796120  14.494228
1677  1   O -2.0  2.056989e+01  10.804770  20.582961
1678  1   O -2.0  2.305989e+01   7.749915  23.627327
1679  1   O -2.0  2.056989e+01  16.914478  14.494228
1680  1   O -2.0  2.305989e+01  13.859624  17.538594
1681  1   O -2.0  2.370978e+01  10.597761  16.744015
1682  1   O -2.0  2.121978e+01   7.542907  19.788381
1683  1   O -2.0  2.370978e+01   4.488053  22.832748
1684  1   O -2.0  2.121978e+01  13.652616  13.699649
1685  1   O -2.0  2.370978e+01  12.606411  22.832748
1686  1   O -2.0  2.121978e+01  21.770974  13.699649
1687  1   O -2.0  2.370978e+01  18.716120  16.744015
1688  1   O -2.0  2.121978e+01  15.661266  19.788381
1689  1   O -2.0  2.121978e+01   5.534257  13.699649
1690  1   O -2.0  2.370978e+01   2.479403  16.744015
1691  1   O -2.0  2.121978e+01  23.779624  19.788381
1692  1   O -2.0  2.370978e+01  20.724770  22.832748
1693  1   O -2.0  2.056989e+01   2.272395  12.905069
1694  1   O -2.0  2.305989e+01  23.572616  15.949435
1695  1   O -2.0  2.056989e+01  20.517762  18.993802
1696  1   O -2.0  2.305989e+01  17.462908  22.038168
1697  1   O -2.0  2.305989e+01   7.335899  15.949435
1698  1   O -2.0  2.056989e+01   4.281045  18.993802
1699  1   O -2.0  2.305989e+01   1.226191  22.038168
1700  1   O -2.0  2.056989e+01  10.390753  12.905069
1701  1   O -2.0  2.056989e+01  12.399403  18.993802
1702  1   O -2.0  2.305989e+01   9.344549  22.038168
1703  1   O -2.0  2.056989e+01  18.509112  12.905069
1704  1   O -2.0  2.305989e+01  15.454257  15.949435
1705  1   O -2.0  2.425011e+01   8.340224  18.993802
1706  1   O -2.0  2.176011e+01   5.285370  22.038168
1707  1   O -2.0  2.425011e+01  14.449932  12.905069
1708  1   O -2.0  2.176011e+01  11.395078  15.949435
1709  1   O -2.0  2.176011e+01  13.403728  22.038168
1710  1   O -2.0  2.425011e+01  22.568291  12.905069
1711  1   O -2.0  2.176011e+01  19.513437  15.949435
1712  1   O -2.0  2.425011e+01  16.458583  18.993802
1713  1   O -2.0  2.425011e+01   6.331574  12.905069
1714  1   O -2.0  2.176011e+01   3.276720  15.949435
1715  1   O -2.0  2.425011e+01   0.221866  18.993802
1716  1   O -2.0  2.176011e+01  21.522087  22.038168
1717  1   O -2.0  2.111022e+01  16.665591  22.832748
1718  1   O -2.0  2.360022e+01   1.475078  13.699649
1719  1   O -2.0  2.111022e+01  22.775299  16.744015
1720  1   O -2.0  2.360022e+01  19.720445  19.788381
1721  1   O -2.0  2.111022e+01   6.538582  16.744015
1722  1   O -2.0  2.360022e+01   3.483728  19.788381
1723  1   O -2.0  2.111022e+01   0.428874  22.832748
1724  1   O -2.0  2.360022e+01   9.593436  13.699649
1725  1   O -2.0  2.360022e+01  11.602086  19.788381
1726  1   O -2.0  2.111022e+01   8.547232  22.832748
1727  1   O -2.0  2.360022e+01  17.711795  13.699649
1728  1   O -2.0  2.111022e+01  14.656941  16.744015
1729  1   O -2.0  2.176011e+01  21.936103  29.716060
1730  1   O -2.0  2.425011e+01  18.881249  32.760426
1731  1   O -2.0  2.176011e+01  15.826395  35.804792
1732  1   O -2.0  2.425011e+01   0.635882  26.671693
1733  1   O -2.0  2.176011e+01  23.944753  35.804792
1734  1   O -2.0  2.425011e+01   8.754240  26.671693
1735  1   O -2.0  2.176011e+01   5.699386  29.716060
1736  1   O -2.0  2.425011e+01   2.644532  32.760426
1737  1   O -2.0  2.425011e+01  16.872599  26.671693
1738  1   O -2.0  2.176011e+01  13.817745  29.716060
1739  1   O -2.0  2.425011e+01  10.762890  32.760426
1740  1   O -2.0  2.176011e+01   7.708036  35.804792
1741  1   O -2.0  2.305989e+01   3.648857  35.804792
1742  1   O -2.0  2.056989e+01  12.813420  26.671693
1743  1   O -2.0  2.305989e+01   9.758565  29.716060
1744  1   O -2.0  2.056989e+01   6.703711  32.760426
1745  1   O -2.0  2.305989e+01  17.876924  29.716060
1746  1   O -2.0  2.056989e+01  14.822070  32.760426
1747  1   O -2.0  2.305989e+01  11.767215  35.804792
1748  1   O -2.0  2.056989e+01  20.931778  26.671693
1749  1   O -2.0  2.056989e+01  22.940428  32.760426
1750  1   O -2.0  2.305989e+01  19.885574  35.804792
1751  1   O -2.0  2.056989e+01   4.695061  26.671693
1752  1   O -2.0  2.305989e+01   1.640207  29.716060
1753  1   O -2.0  2.370978e+01  22.733420  28.921480
1754  1   O -2.0  2.121978e+01  19.678566  31.965847
1755  1   O -2.0  2.370978e+01  16.623712  35.010213
1756  1   O -2.0  2.121978e+01   1.433199  25.877114
1757  1   O -2.0  2.370978e+01   0.386995  35.010213
1758  1   O -2.0  2.121978e+01   9.551557  25.877114
1759  1   O -2.0  2.370978e+01   6.496703  28.921480
1760  1   O -2.0  2.121978e+01   3.441849  31.965847
1761  1   O -2.0  2.121978e+01  17.669916  25.877114
1762  1   O -2.0  2.370978e+01  14.615061  28.921480
1763  1   O -2.0  2.121978e+01  11.560207  31.965847
1764  1   O -2.0  2.370978e+01   8.505353  35.010213
1765  1   O -2.0  2.056989e+01  14.408053  25.082534
1766  1   O -2.0  2.305989e+01  11.353199  28.126901
1767  1   O -2.0  2.056989e+01   8.298345  31.171267
1768  1   O -2.0  2.305989e+01   5.243491  34.215633
1769  1   O -2.0  2.305989e+01  19.471558  28.126901
1770  1   O -2.0  2.056989e+01  16.416703  31.171267
1771  1   O -2.0  2.305989e+01  13.361849  34.215633
1772  1   O -2.0  2.056989e+01  22.526412  25.082534
1773  1   O -2.0  2.056989e+01   0.179987  31.171267
1774  1   O -2.0  2.305989e+01  21.480208  34.215633
1775  1   O -2.0  2.056989e+01   6.289695  25.082534
1776  1   O -2.0  2.305989e+01   3.234841  28.126901
1777  1   O -2.0  2.425011e+01  20.475883  31.171267
1778  1   O -2.0  2.176011e+01  17.421028  34.215633
1779  1   O -2.0  2.425011e+01   2.230516  25.082534
1780  1   O -2.0  2.176011e+01  23.530737  28.126901
1781  1   O -2.0  2.176011e+01   1.184312  34.215633
1782  1   O -2.0  2.425011e+01  10.348874  25.082534
1783  1   O -2.0  2.176011e+01   7.294020  28.126901
1784  1   O -2.0  2.425011e+01   4.239166  31.171267
1785  1   O -2.0  2.425011e+01  18.467233  25.082534
1786  1   O -2.0  2.176011e+01  15.412378  28.126901
1787  1   O -2.0  2.425011e+01  12.357524  31.171267
1788  1   O -2.0  2.176011e+01   9.302670  34.215633
1789  1   O -2.0  2.111022e+01   4.446174  35.010213
1790  1   O -2.0  2.360022e+01  13.610736  25.877114
1791  1   O -2.0  2.111022e+01  10.555882  28.921480
1792  1   O -2.0  2.360022e+01   7.501028  31.965847
1793  1   O -2.0  2.111022e+01  18.674241  28.921480
1794  1   O -2.0  2.360022e+01  15.619387  31.965847
1795  1   O -2.0  2.111022e+01  12.564532  35.010213
1796  1   O -2.0  2.360022e+01  21.729095  25.877114
1797  1   O -2.0  2.360022e+01  23.737745  31.965847
1798  1   O -2.0  2.111022e+01  20.682891  35.010213
1799  1   O -2.0  2.360022e+01   5.492378  25.877114
1800  1   O -2.0  2.111022e+01   2.437524  28.921480
1801  1  Ca  2.0  2.739000e+01  19.783263   1.522183
1802  1  Ca  2.0  2.490000e+01  16.728409   4.566550
1803  1  Ca  2.0  2.739000e+01  13.673555   7.610916
1804  1  Ca  2.0  2.490000e+01  10.618701  10.655282
1805  1  Ca  2.0  2.739000e+01  21.791913   7.610916
1806  1  Ca  2.0  2.490000e+01  18.737059  10.655282
1807  1  Ca  2.0  2.739000e+01   3.546547   1.522183
1808  1  Ca  2.0  2.490000e+01   0.491693   4.566550
1809  1  Ca  2.0  2.490000e+01   2.500343  10.655282
1810  1  Ca  2.0  2.739000e+01  11.664905   1.522183
1811  1  Ca  2.0  2.490000e+01   8.610051   4.566550
1812  1  Ca  2.0  2.739000e+01   5.555197   7.610916
1813  1  Ca  2.0  2.739000e+01   1.496018   7.610916
1814  1  Ca  2.0  2.490000e+01  22.796238  10.655282
1815  1  Ca  2.0  2.739000e+01   7.605726   1.522183
1816  1  Ca  2.0  2.490000e+01   4.550872   4.566550
1817  1  Ca  2.0  2.739000e+01  15.724084   1.522183
1818  1  Ca  2.0  2.490000e+01  12.669230   4.566550
1819  1  Ca  2.0  2.739000e+01   9.614376   7.610916
1820  1  Ca  2.0  2.490000e+01   6.559522  10.655282
1821  1  Ca  2.0  2.490000e+01  20.787588   4.566550
1822  1  Ca  2.0  2.739000e+01  17.732734   7.610916
1823  1  Ca  2.0  2.490000e+01  14.677880  10.655282
1824  1  Ca  2.0  2.739000e+01  23.842442   1.522183
1825  1  Ca  2.0  2.739000e+01   7.563847  13.699649
1826  1  Ca  2.0  2.490000e+01   4.508993  16.744015
1827  1  Ca  2.0  2.739000e+01   1.454139  19.788381
1828  1  Ca  2.0  2.490000e+01  22.754359  22.832748
1829  1  Ca  2.0  2.739000e+01   9.572497  19.788381
1830  1  Ca  2.0  2.490000e+01   6.517643  22.832748
1831  1  Ca  2.0  2.739000e+01  15.682205  13.699649
1832  1  Ca  2.0  2.490000e+01  12.627351  16.744015
1833  1  Ca  2.0  2.490000e+01  14.636001  22.832748
1834  1  Ca  2.0  2.739000e+01  23.800563  13.699649
1835  1  Ca  2.0  2.490000e+01  20.745709  16.744015
1836  1  Ca  2.0  2.739000e+01  17.690855  19.788381
1837  1  Ca  2.0  2.739000e+01  13.631676  19.788381
1838  1  Ca  2.0  2.490000e+01  10.576822  22.832748
1839  1  Ca  2.0  2.739000e+01  19.741384  13.699649
1840  1  Ca  2.0  2.490000e+01  16.686530  16.744015
1841  1  Ca  2.0  2.739000e+01   3.504668  13.699649
1842  1  Ca  2.0  2.490000e+01   0.449814  16.744015
1843  1  Ca  2.0  2.739000e+01  21.750034  19.788381
1844  1  Ca  2.0  2.490000e+01  18.695180  22.832748
1845  1  Ca  2.0  2.490000e+01   8.568172  16.744015
1846  1  Ca  2.0  2.739000e+01   5.513318  19.788381
1847  1  Ca  2.0  2.490000e+01   2.458464  22.832748
1848  1  Ca  2.0  2.739000e+01  11.623026  13.699649
1849  1  Ca  2.0  2.739000e+01  19.699505  25.877114
1850  1  Ca  2.0  2.490000e+01  16.644651  28.921480
1851  1  Ca  2.0  2.739000e+01  13.589797  31.965847
1852  1  Ca  2.0  2.490000e+01  10.534943  35.010213
1853  1  Ca  2.0  2.739000e+01  21.708155  31.965847
1854  1  Ca  2.0  2.490000e+01  18.653301  35.010213
1855  1  Ca  2.0  2.739000e+01   3.462789  25.877114
1856  1  Ca  2.0  2.490000e+01   0.407935  28.921480
1857  1  Ca  2.0  2.490000e+01   2.416585  35.010213
1858  1  Ca  2.0  2.739000e+01  11.581147  25.877114
1859  1  Ca  2.0  2.490000e+01   8.526293  28.921480
1860  1  Ca  2.0  2.739000e+01   5.471439  31.965847
1861  1  Ca  2.0  2.739000e+01   1.412260  31.965847
1862  1  Ca  2.0  2.490000e+01  22.712480  35.010213
1863  1  Ca  2.0  2.739000e+01   7.521968  25.877114
1864  1  Ca  2.0  2.490000e+01   4.467114  28.921480
1865  1  Ca  2.0  2.739000e+01  15.640326  25.877114
1866  1  Ca  2.0  2.490000e+01  12.585472  28.921480
1867  1  Ca  2.0  2.739000e+01   9.530618  31.965847
1868  1  Ca  2.0  2.490000e+01   6.475764  35.010213
1869  1  Ca  2.0  2.490000e+01  20.703830  28.921480
1870  1  Ca  2.0  2.739000e+01  17.648976  31.965847
1871  1  Ca  2.0  2.490000e+01  14.594122  35.010213
1872  1  Ca  2.0  2.739000e+01  23.758684  25.877114
1873  1   C  4.0  2.739000e+01  22.817178   4.566550
1874  1   C  4.0  2.490000e+01  19.762324   7.610916
1875  1   C  4.0  2.739000e+01  16.707470  10.655282
1876  1   C  4.0  2.490000e+01   1.516957   1.522183
1877  1   C  4.0  2.739000e+01   0.470753  10.655282
1878  1   C  4.0  2.490000e+01   9.635316   1.522183
1879  1   C  4.0  2.739000e+01   6.580461   4.566550
1880  1   C  4.0  2.490000e+01   3.525607   7.610916
1881  1   C  4.0  2.490000e+01  17.753674   1.522183
1882  1   C  4.0  2.739000e+01  14.698820   4.566550
1883  1   C  4.0  2.490000e+01  11.643966   7.610916
1884  1   C  4.0  2.739000e+01   8.589111  10.655282
1885  1   C  4.0  2.739000e+01   4.529932  10.655282
1886  1   C  4.0  2.490000e+01  13.694495   1.522183
1887  1   C  4.0  2.739000e+01  10.639641   4.566550
1888  1   C  4.0  2.490000e+01   7.584786   7.610916
1889  1   C  4.0  2.739000e+01  18.757999   4.566550
1890  1   C  4.0  2.490000e+01  15.703145   7.610916
1891  1   C  4.0  2.739000e+01  12.648291  10.655282
1892  1   C  4.0  2.490000e+01  21.812853   1.522183
1893  1   C  4.0  2.490000e+01  23.821503   7.610916
1894  1   C  4.0  2.739000e+01  20.766649  10.655282
1895  1   C  4.0  2.490000e+01   5.576136   1.522183
1896  1   C  4.0  2.739000e+01   2.521282   4.566550
1897  1   C  4.0  2.739000e+01  10.597761  16.744015
1898  1   C  4.0  2.490000e+01   7.542907  19.788381
1899  1   C  4.0  2.739000e+01   4.488053  22.832748
1900  1   C  4.0  2.490000e+01  13.652616  13.699649
1901  1   C  4.0  2.739000e+01  12.606411  22.832748
1902  1   C  4.0  2.490000e+01  21.770974  13.699649
1903  1   C  4.0  2.739000e+01  18.716120  16.744015
1904  1   C  4.0  2.490000e+01  15.661266  19.788381
1905  1   C  4.0  2.490000e+01   5.534257  13.699649
1906  1   C  4.0  2.739000e+01   2.479403  16.744015
1907  1   C  4.0  2.490000e+01  23.779624  19.788381
1908  1   C  4.0  2.739000e+01  20.724770  22.832748
1909  1   C  4.0  2.739000e+01  16.665591  22.832748
1910  1   C  4.0  2.490000e+01   1.475078  13.699649
1911  1   C  4.0  2.739000e+01  22.775299  16.744015
1912  1   C  4.0  2.490000e+01  19.720445  19.788381
1913  1   C  4.0  2.739000e+01   6.538582  16.744015
1914  1   C  4.0  2.490000e+01   3.483728  19.788381
1915  1   C  4.0  2.739000e+01   0.428874  22.832748
1916  1   C  4.0  2.490000e+01   9.593436  13.699649
1917  1   C  4.0  2.490000e+01  11.602086  19.788381
1918  1   C  4.0  2.739000e+01   8.547232  22.832748
1919  1   C  4.0  2.490000e+01  17.711795  13.699649
1920  1   C  4.0  2.739000e+01  14.656941  16.744015
1921  1   C  4.0  2.739000e+01  22.733420  28.921480
1922  1   C  4.0  2.490000e+01  19.678566  31.965847
1923  1   C  4.0  2.739000e+01  16.623712  35.010213
1924  1   C  4.0  2.490000e+01   1.433199  25.877114
1925  1   C  4.0  2.739000e+01   0.386995  35.010213
1926  1   C  4.0  2.490000e+01   9.551557  25.877114
1927  1   C  4.0  2.739000e+01   6.496703  28.921480
1928  1   C  4.0  2.490000e+01   3.441849  31.965847
1929  1   C  4.0  2.490000e+01  17.669916  25.877114
1930  1   C  4.0  2.739000e+01  14.615061  28.921480
1931  1   C  4.0  2.490000e+01  11.560207  31.965847
1932  1   C  4.0  2.739000e+01   8.505353  35.010213
1933  1   C  4.0  2.739000e+01   4.446174  35.010213
1934  1   C  4.0  2.490000e+01  13.610736  25.877114
1935  1   C  4.0  2.739000e+01  10.555882  28.921480
1936  1   C  4.0  2.490000e+01   7.501028  31.965847
1937  1   C  4.0  2.739000e+01  18.674241  28.921480
1938  1   C  4.0  2.490000e+01  15.619387  31.965847
1939  1   C  4.0  2.739000e+01  12.564532  35.010213
1940  1   C  4.0  2.490000e+01  21.729095  25.877114
1941  1   C  4.0  2.490000e+01  23.737745  31.965847
1942  1   C  4.0  2.739000e+01  20.682891  35.010213
1943  1   C  4.0  2.490000e+01   5.492378  25.877114
1944  1   C  4.0  2.739000e+01   2.437524  28.921480
1945  1   O -2.0  2.674011e+01  22.019861   5.361129
1946  1   O -2.0  2.923011e+01  18.965007   8.405495
1947  1   O -2.0  2.674011e+01  15.910153  11.449862
1948  1   O -2.0  2.923011e+01   0.719640   2.316763
1949  1   O -2.0  2.674011e+01  24.028511  11.449862
1950  1   O -2.0  2.923011e+01   8.837999   2.316763
1951  1   O -2.0  2.674011e+01   5.783144   5.361129
1952  1   O -2.0  2.923011e+01   2.728290   8.405495
1953  1   O -2.0  2.923011e+01  16.956357   2.316763
1954  1   O -2.0  2.674011e+01  13.901503   5.361129
1955  1   O -2.0  2.923011e+01  10.846649   8.405495
1956  1   O -2.0  2.674011e+01   7.791795  11.449862
1957  1   O -2.0  2.803989e+01   3.732615  11.449862
1958  1   O -2.0  2.554989e+01  12.897178   2.316763
1959  1   O -2.0  2.803989e+01   9.842324   5.361129
1960  1   O -2.0  2.554989e+01   6.787470   8.405495
1961  1   O -2.0  2.803989e+01  17.960682   5.361129
1962  1   O -2.0  2.554989e+01  14.905828   8.405495
1963  1   O -2.0  2.803989e+01  11.850974  11.449862
1964  1   O -2.0  2.554989e+01  21.015536   2.316763
1965  1   O -2.0  2.554989e+01  23.024186   8.405495
1966  1   O -2.0  2.803989e+01  19.969332  11.449862
1967  1   O -2.0  2.554989e+01   4.778819   2.316763
1968  1   O -2.0  2.803989e+01   1.723965   5.361129
1969  1   O -2.0  2.868978e+01  22.817178   4.566550
1970  1   O -2.0  2.619978e+01  19.762324   7.610916
1971  1   O -2.0  2.868978e+01  16.707470  10.655282
1972  1   O -2.0  2.619978e+01   1.516957   1.522183
1973  1   O -2.0  2.868978e+01   0.470753  10.655282
1974  1   O -2.0  2.619978e+01   9.635316   1.522183
1975  1   O -2.0  2.868978e+01   6.580461   4.566550
1976  1   O -2.0  2.619978e+01   3.525607   7.610916
1977  1   O -2.0  2.619978e+01  17.753674   1.522183
1978  1   O -2.0  2.868978e+01  14.698820   4.566550
1979  1   O -2.0  2.619978e+01  11.643966   7.610916
1980  1   O -2.0  2.868978e+01   8.589111  10.655282
1981  1   O -2.0  2.554989e+01  14.491812   0.727604
1982  1   O -2.0  2.803989e+01  11.436957   3.771970
1983  1   O -2.0  2.554989e+01   8.382103   6.816336
1984  1   O -2.0  2.803989e+01   5.327249   9.860703
1985  1   O -2.0  2.803989e+01  19.555316   3.771970
1986  1   O -2.0  2.554989e+01  16.500462   6.816336
1987  1   O -2.0  2.803989e+01  13.445607   9.860703
1988  1   O -2.0  2.554989e+01  22.610170   0.727604
1989  1   O -2.0  2.554989e+01   0.263745   6.816336
1990  1   O -2.0  2.803989e+01  21.563966   9.860703
1991  1   O -2.0  2.554989e+01   6.373453   0.727604
1992  1   O -2.0  2.803989e+01   3.318599   3.771970
1993  1   O -2.0  2.923011e+01  20.559641   6.816336
1994  1   O -2.0  2.674011e+01  17.504787   9.860703
1995  1   O -2.0  2.923011e+01   2.314274   0.727604
1996  1   O -2.0  2.674011e+01  23.614495   3.771970
1997  1   O -2.0  2.674011e+01   1.268070   9.860703
1998  1   O -2.0  2.923011e+01  10.432632   0.727604
1999  1   O -2.0  2.674011e+01   7.377778   3.771970
2000  1   O -2.0  2.923011e+01   4.322924   6.816336
2001  1   O -2.0  2.923011e+01  18.550991   0.727604
2002  1   O -2.0  2.674011e+01  15.496137   3.771970
2003  1   O -2.0  2.923011e+01  12.441282   6.816336
2004  1   O -2.0  2.674011e+01   9.386428   9.860703
2005  1   O -2.0  2.609022e+01   4.529932  10.655282
2006  1   O -2.0  2.858022e+01  13.694495   1.522183
2007  1   O -2.0  2.609022e+01  10.639641   4.566550
2008  1   O -2.0  2.858022e+01   7.584786   7.610916
2009  1   O -2.0  2.609022e+01  18.757999   4.566550
2010  1   O -2.0  2.858022e+01  15.703145   7.610916
2011  1   O -2.0  2.609022e+01  12.648291  10.655282
2012  1   O -2.0  2.858022e+01  21.812853   1.522183
2013  1   O -2.0  2.858022e+01  23.821503   7.610916
2014  1   O -2.0  2.609022e+01  20.766649  10.655282
2015  1   O -2.0  2.858022e+01   5.576136   1.522183
2016  1   O -2.0  2.609022e+01   2.521282   4.566550
2017  1   O -2.0  2.674011e+01   9.800445  17.538594
2018  1   O -2.0  2.923011e+01   6.745590  20.582961
2019  1   O -2.0  2.674011e+01   3.690736  23.627327
2020  1   O -2.0  2.923011e+01  12.855299  14.494228
2021  1   O -2.0  2.674011e+01  11.809095  23.627327
2022  1   O -2.0  2.923011e+01  20.973657  14.494228
2023  1   O -2.0  2.674011e+01  17.918803  17.538594
2024  1   O -2.0  2.923011e+01  14.863949  20.582961
2025  1   O -2.0  2.923011e+01   4.736940  14.494228
2026  1   O -2.0  2.674011e+01   1.682086  17.538594
2027  1   O -2.0  2.923011e+01  22.982307  20.582961
2028  1   O -2.0  2.674011e+01  19.927453  23.627327
2029  1   O -2.0  2.803989e+01  15.868274  23.627327
2030  1   O -2.0  2.554989e+01   0.677761  14.494228
2031  1   O -2.0  2.803989e+01  21.977982  17.538594
2032  1   O -2.0  2.554989e+01  18.923128  20.582961
2033  1   O -2.0  2.803989e+01   5.741265  17.538594
2034  1   O -2.0  2.554989e+01   2.686411  20.582961
2035  1   O -2.0  2.803989e+01  23.986632  23.627327
2036  1   O -2.0  2.554989e+01   8.796120  14.494228
2037  1   O -2.0  2.554989e+01  10.804770  20.582961
2038  1   O -2.0  2.803989e+01   7.749915  23.627327
2039  1   O -2.0  2.554989e+01  16.914478  14.494228
2040  1   O -2.0  2.803989e+01  13.859624  17.538594
2041  1   O -2.0  2.868978e+01  10.597761  16.744015
2042  1   O -2.0  2.619978e+01   7.542907  19.788381
2043  1   O -2.0  2.868978e+01   4.488053  22.832748
2044  1   O -2.0  2.619978e+01  13.652616  13.699649
2045  1   O -2.0  2.868978e+01  12.606411  22.832748
2046  1   O -2.0  2.619978e+01  21.770974  13.699649
2047  1   O -2.0  2.868978e+01  18.716120  16.744015
2048  1   O -2.0  2.619978e+01  15.661266  19.788381
2049  1   O -2.0  2.619978e+01   5.534257  13.699649
2050  1   O -2.0  2.868978e+01   2.479403  16.744015
2051  1   O -2.0  2.619978e+01  23.779624  19.788381
2052  1   O -2.0  2.868978e+01  20.724770  22.832748
2053  1   O -2.0  2.554989e+01   2.272395  12.905069
2054  1   O -2.0  2.803989e+01  23.572616  15.949435
2055  1   O -2.0  2.554989e+01  20.517762  18.993802
2056  1   O -2.0  2.803989e+01  17.462908  22.038168
2057  1   O -2.0  2.803989e+01   7.335899  15.949435
2058  1   O -2.0  2.554989e+01   4.281045  18.993802
2059  1   O -2.0  2.803989e+01   1.226191  22.038168
2060  1   O -2.0  2.554989e+01  10.390753  12.905069
2061  1   O -2.0  2.554989e+01  12.399403  18.993802
2062  1   O -2.0  2.803989e+01   9.344549  22.038168
2063  1   O -2.0  2.554989e+01  18.509112  12.905069
2064  1   O -2.0  2.803989e+01  15.454257  15.949435
2065  1   O -2.0  2.923011e+01   8.340224  18.993802
2066  1   O -2.0  2.674011e+01   5.285370  22.038168
2067  1   O -2.0  2.923011e+01  14.449932  12.905069
2068  1   O -2.0  2.674011e+01  11.395078  15.949435
2069  1   O -2.0  2.674011e+01  13.403728  22.038168
2070  1   O -2.0  2.923011e+01  22.568291  12.905069
2071  1   O -2.0  2.674011e+01  19.513437  15.949435
2072  1   O -2.0  2.923011e+01  16.458583  18.993802
2073  1   O -2.0  2.923011e+01   6.331574  12.905069
2074  1   O -2.0  2.674011e+01   3.276720  15.949435
2075  1   O -2.0  2.923011e+01   0.221866  18.993802
2076  1   O -2.0  2.674011e+01  21.522087  22.038168
2077  1   O -2.0  2.609022e+01  16.665591  22.832748
2078  1   O -2.0  2.858022e+01   1.475078  13.699649
2079  1   O -2.0  2.609022e+01  22.775299  16.744015
2080  1   O -2.0  2.858022e+01  19.720445  19.788381
2081  1   O -2.0  2.609022e+01   6.538582  16.744015
2082  1   O -2.0  2.858022e+01   3.483728  19.788381
2083  1   O -2.0  2.609022e+01   0.428874  22.832748
2084  1   O -2.0  2.858022e+01   9.593436  13.699649
2085  1   O -2.0  2.858022e+01  11.602086  19.788381
2086  1   O -2.0  2.609022e+01   8.547232  22.832748
2087  1   O -2.0  2.858022e+01  17.711795  13.699649
2088  1   O -2.0  2.609022e+01  14.656941  16.744015
2089  1   O -2.0  2.674011e+01  21.936103  29.716060
2090  1   O -2.0  2.923011e+01  18.881249  32.760426
2091  1   O -2.0  2.674011e+01  15.826395  35.804792
2092  1   O -2.0  2.923011e+01   0.635882  26.671693
2093  1   O -2.0  2.674011e+01  23.944753  35.804792
2094  1   O -2.0  2.923011e+01   8.754240  26.671693
2095  1   O -2.0  2.674011e+01   5.699386  29.716060
2096  1   O -2.0  2.923011e+01   2.644532  32.760426
2097  1   O -2.0  2.923011e+01  16.872599  26.671693
2098  1   O -2.0  2.674011e+01  13.817745  29.716060
2099  1   O -2.0  2.923011e+01  10.762890  32.760426
2100  1   O -2.0  2.674011e+01   7.708036  35.804792
2101  1   O -2.0  2.803989e+01   3.648857  35.804792
2102  1   O -2.0  2.554989e+01  12.813420  26.671693
2103  1   O -2.0  2.803989e+01   9.758565  29.716060
2104  1   O -2.0  2.554989e+01   6.703711  32.760426
2105  1   O -2.0  2.803989e+01  17.876924  29.716060
2106  1   O -2.0  2.554989e+01  14.822070  32.760426
2107  1   O -2.0  2.803989e+01  11.767215  35.804792
2108  1   O -2.0  2.554989e+01  20.931778  26.671693
2109  1   O -2.0  2.554989e+01  22.940428  32.760426
2110  1   O -2.0  2.803989e+01  19.885574  35.804792
2111  1   O -2.0  2.554989e+01   4.695061  26.671693
2112  1   O -2.0  2.803989e+01   1.640207  29.716060
2113  1   O -2.0  2.868978e+01  22.733420  28.921480
2114  1   O -2.0  2.619978e+01  19.678566  31.965847
2115  1   O -2.0  2.868978e+01  16.623712  35.010213
2116  1   O -2.0  2.619978e+01   1.433199  25.877114
2117  1   O -2.0  2.868978e+01   0.386995  35.010213
2118  1   O -2.0  2.619978e+01   9.551557  25.877114
2119  1   O -2.0  2.868978e+01   6.496703  28.921480
2120  1   O -2.0  2.619978e+01   3.441849  31.965847
2121  1   O -2.0  2.619978e+01  17.669916  25.877114
2122  1   O -2.0  2.868978e+01  14.615061  28.921480
2123  1   O -2.0  2.619978e+01  11.560207  31.965847
2124  1   O -2.0  2.868978e+01   8.505353  35.010213
2125  1   O -2.0  2.554989e+01  14.408053  25.082534
2126  1   O -2.0  2.803989e+01  11.353199  28.126901
2127  1   O -2.0  2.554989e+01   8.298345  31.171267
2128  1   O -2.0  2.803989e+01   5.243491  34.215633
2129  1   O -2.0  2.803989e+01  19.471558  28.126901
2130  1   O -2.0  2.554989e+01  16.416703  31.171267
2131  1   O -2.0  2.803989e+01  13.361849  34.215633
2132  1   O -2.0  2.554989e+01  22.526412  25.082534
2133  1   O -2.0  2.554989e+01   0.179987  31.171267
2134  1   O -2.0  2.803989e+01  21.480208  34.215633
2135  1   O -2.0  2.554989e+01   6.289695  25.082534
2136  1   O -2.0  2.803989e+01   3.234841  28.126901
2137  1   O -2.0  2.923011e+01  20.475883  31.171267
2138  1   O -2.0  2.674011e+01  17.421028  34.215633
2139  1   O -2.0  2.923011e+01   2.230516  25.082534
2140  1   O -2.0  2.674011e+01  23.530737  28.126901
2141  1   O -2.0  2.674011e+01   1.184312  34.215633
2142  1   O -2.0  2.923011e+01  10.348874  25.082534
2143  1   O -2.0  2.674011e+01   7.294020  28.126901
2144  1   O -2.0  2.923011e+01   4.239166  31.171267
2145  1   O -2.0  2.923011e+01  18.467233  25.082534
2146  1   O -2.0  2.674011e+01  15.412378  28.126901
2147  1   O -2.0  2.923011e+01  12.357524  31.171267
2148  1   O -2.0  2.674011e+01   9.302670  34.215633
2149  1   O -2.0  2.609022e+01   4.446174  35.010213
2150  1   O -2.0  2.858022e+01  13.610736  25.877114
2151  1   O -2.0  2.609022e+01  10.555882  28.921480
2152  1   O -2.0  2.858022e+01   7.501028  31.965847
2153  1   O -2.0  2.609022e+01  18.674241  28.921480
2154  1   O -2.0  2.858022e+01  15.619387  31.965847
2155  1   O -2.0  2.609022e+01  12.564532  35.010213
2156  1   O -2.0  2.858022e+01  21.729095  25.877114
2157  1   O -2.0  2.858022e+01  23.737745  31.965847
2158  1   O -2.0  2.609022e+01  20.682891  35.010213
2159  1   O -2.0  2.858022e+01   5.492378  25.877114
2160  1   O -2.0  2.609022e+01   2.437524  28.921480
2161  1  Ca  2.0  3.237000e+01  19.783263   1.522183
2162  1  Ca  2.0  2.988000e+01  16.728409   4.566550
2163  1  Ca  2.0  3.237000e+01  13.673555   7.610916
2164  1  Ca  2.0  2.988000e+01  10.618701  10.655282
2165  1  Ca  2.0  3.237000e+01  21.791913   7.610916
2166  1  Ca  2.0  2.988000e+01  18.737059  10.655282
2167  1  Ca  2.0  3.237000e+01   3.546547   1.522183
2168  1  Ca  2.0  2.988000e+01   0.491693   4.566550
2169  1  Ca  2.0  2.988000e+01   2.500343  10.655282
2170  1  Ca  2.0  3.237000e+01  11.664905   1.522183
2171  1  Ca  2.0  2.988000e+01   8.610051   4.566550
2172  1  Ca  2.0  3.237000e+01   5.555197   7.610916
2173  1  Ca  2.0  3.237000e+01   1.496018   7.610916
2174  1  Ca  2.0  2.988000e+01  22.796238  10.655282
2175  1  Ca  2.0  3.237000e+01   7.605726   1.522183
2176  1  Ca  2.0  2.988000e+01   4.550872   4.566550
2177  1  Ca  2.0  3.237000e+01  15.724084   1.522183
2178  1  Ca  2.0  2.988000e+01  12.669230   4.566550
2179  1  Ca  2.0  3.237000e+01   9.614376   7.610916
2180  1  Ca  2.0  2.988000e+01   6.559522  10.655282
2181  1  Ca  2.0  2.988000e+01  20.787588   4.566550
2182  1  Ca  2.0  3.237000e+01  17.732734   7.610916
2183  1  Ca  2.0  2.988000e+01  14.677880  10.655282
2184  1  Ca  2.0  3.237000e+01  23.842442   1.522183
2185  1  Ca  2.0  3.237000e+01   7.563847  13.699649
2186  1  Ca  2.0  2.988000e+01   4.508993  16.744015
2187  1  Ca  2.0  3.237000e+01   1.454139  19.788381
2188  1  Ca  2.0  2.988000e+01  22.754359  22.832748
2189  1  Ca  2.0  3.237000e+01   9.572497  19.788381
2190  1  Ca  2.0  2.988000e+01   6.517643  22.832748
2191  1  Ca  2.0  3.237000e+01  15.682205  13.699649
2192  1  Ca  2.0  2.988000e+01  12.627351  16.744015
2193  1  Ca  2.0  2.988000e+01  14.636001  22.832748
2194  1  Ca  2.0  3.237000e+01  23.800563  13.699649
2195  1  Ca  2.0  2.988000e+01  20.745709  16.744015
2196  1  Ca  2.0  3.237000e+01  17.690855  19.788381
2197  1  Ca  2.0  3.237000e+01  13.631676  19.788381
2198  1  Ca  2.0  2.988000e+01  10.576822  22.832748
2199  1  Ca  2.0  3.237000e+01  19.741384  13.699649
2200  1  Ca  2.0  2.988000e+01  16.686530  16.744015
2201  1  Ca  2.0  3.237000e+01   3.504668  13.699649
2202  1  Ca  2.0  2.988000e+01   0.449814  16.744015
2203  1  Ca  2.0  3.237000e+01  21.750034  19.788381
2204  1  Ca  2.0  2.988000e+01  18.695180  22.832748
2205  1  Ca  2.0  2.988000e+01   8.568172  16.744015
2206  1  Ca  2.0  3.237000e+01   5.513318  19.788381
2207  1  Ca  2.0  2.988000e+01   2.458464  22.832748
2208  1  Ca  2.0  3.237000e+01  11.623026  13.699649
2209  1  Ca  2.0  3.237000e+01  19.699505  25.877114
2210  1  Ca  2.0  2.988000e+01  16.644651  28.921480
2211  1  Ca  2.0  3.237000e+01  13.589797  31.965847
2212  1  Ca  2.0  2.988000e+01  10.534943  35.010213
2213  1  Ca  2.0  3.237000e+01  21.708155  31.965847
2214  1  Ca  2.0  2.988000e+01  18.653301  35.010213
2215  1  Ca  2.0  3.237000e+01   3.462789  25.877114
2216  1  Ca  2.0  2.988000e+01   0.407935  28.921480
2217  1  Ca  2.0  2.988000e+01   2.416585  35.010213
2218  1  Ca  2.0  3.237000e+01  11.581147  25.877114
2219  1  Ca  2.0  2.988000e+01   8.526293  28.921480
2220  1  Ca  2.0  3.237000e+01   5.471439  31.965847
2221  1  Ca  2.0  3.237000e+01   1.412260  31.965847
2222  1  Ca  2.0  2.988000e+01  22.712480  35.010213
2223  1  Ca  2.0  3.237000e+01   7.521968  25.877114
2224  1  Ca  2.0  2.988000e+01   4.467114  28.921480
2225  1  Ca  2.0  3.237000e+01  15.640326  25.877114
2226  1  Ca  2.0  2.988000e+01  12.585472  28.921480
2227  1  Ca  2.0  3.237000e+01   9.530618  31.965847
2228  1  Ca  2.0  2.988000e+01   6.475764  35.010213
2229  1  Ca  2.0  2.988000e+01  20.703830  28.921480
2230  1  Ca  2.0  3.237000e+01  17.648976  31.965847
2231  1  Ca  2.0  2.988000e+01  14.594122  35.010213
2232  1  Ca  2.0  3.237000e+01  23.758684  25.877114
2233  1   C  4.0  3.237000e+01  22.817178   4.566550
2234  1   C  4.0  2.988000e+01  19.762324   7.610916
2235  1   C  4.0  3.237000e+01  16.707470  10.655282
2236  1   C  4.0  2.988000e+01   1.516957   1.522183
2237  1   C  4.0  3.237000e+01   0.470753  10.655282
2238  1   C  4.0  2.988000e+01   9.635316   1.522183
2239  1   C  4.0  3.237000e+01   6.580461   4.566550
2240  1   C  4.0  2.988000e+01   3.525607   7.610916
2241  1   C  4.0  2.988000e+01  17.753674   1.522183
2242  1   C  4.0  3.237000e+01  14.698820   4.566550
2243  1   C  4.0  2.988000e+01  11.643966   7.610916
2244  1   C  4.0  3.237000e+01   8.589111  10.655282
2245  1   C  4.0  3.237000e+01   4.529932  10.655282
2246  1   C  4.0  2.988000e+01  13.694495   1.522183
2247  1   C  4.0  3.237000e+01  10.639641   4.566550
2248  1   C  4.0  2.988000e+01   7.584786   7.610916
2249  1   C  4.0  3.237000e+01  18.757999   4.566550
2250  1   C  4.0  2.988000e+01  15.703145   7.610916
2251  1   C  4.0  3.237000e+01  12.648291  10.655282
2252  1   C  4.0  2.988000e+01  21.812853   1.522183
2253  1   C  4.0  2.988000e+01  23.821503   7.610916
2254  1   C  4.0  3.237000e+01  20.766649  10.655282
2255  1   C  4.0  2.988000e+01   5.576136   1.522183
2256  1   C  4.0  3.237000e+01   2.521282   4.566550
2257  1   C  4.0  3.237000e+01  10.597761  16.744015
2258  1   C  4.0  2.988000e+01   7.542907  19.788381
2259  1   C  4.0  3.237000e+01   4.488053  22.832748
2260  1   C  4.0  2.988000e+01  13.652616  13.699649
2261  1   C  4.0  3.237000e+01  12.606411  22.832748
2262  1   C  4.0  2.988000e+01  21.770974  13.699649
2263  1   C  4.0  3.237000e+01  18.716120  16.744015
2264  1   C  4.0  2.988000e+01  15.661266  19.788381
2265  1   C  4.0  2.988000e+01   5.534257  13.699649
2266  1   C  4.0  3.237000e+01   2.479403  16.744015
2267  1   C  4.0  2.988000e+01  23.779624  19.788381
2268  1   C  4.0  3.237000e+01  20.724770  22.832748
2269  1   C  4.0  3.237000e+01  16.665591  22.832748
2270  1   C  4.0  2.988000e+01   1.475078  13.699649
2271  1   C  4.0  3.237000e+01  22.775299  16.744015
2272  1   C  4.0  2.988000e+01  19.720445  19.788381
2273  1   C  4.0  3.237000e+01   6.538582  16.744015
2274  1   C  4.0  2.988000e+01   3.483728  19.788381
2275  1   C  4.0  3.237000e+01   0.428874  22.832748
2276  1   C  4.0  2.988000e+01   9.593436  13.699649
2277  1   C  4.0  2.988000e+01  11.602086  19.788381
2278  1   C  4.0  3.237000e+01   8.547232  22.832748
2279  1   C  4.0  2.988000e+01  17.711795  13.699649
2280  1   C  4.0  3.237000e+01  14.656941  16.744015
2281  1   C  4.0  3.237000e+01  22.733420  28.921480
2282  1   C  4.0  2.988000e+01  19.678566  31.965847
2283  1   C  4.0  3.237000e+01  16.623712  35.010213
2284  1   C  4.0  2.988000e+01   1.433199  25.877114
2285  1   C  4.0  3.237000e+01   0.386995  35.010213
2286  1   C  4.0  2.988000e+01   9.551557  25.877114
2287  1   C  4.0  3.237000e+01   6.496703  28.921480
2288  1   C  4.0  2.988000e+01   3.441849  31.965847
2289  1   C  4.0  2.988000e+01  17.669916  25.877114
2290  1   C  4.0  3.237000e+01  14.615061  28.921480
2291  1   C  4.0  2.988000e+01  11.560207  31.965847
2292  1   C  4.0  3.237000e+01   8.505353  35.010213
2293  1   C  4.0  3.237000e+01   4.446174  35.010213
2294  1   C  4.0  2.988000e+01  13.610736  25.877114
2295  1   C  4.0  3.237000e+01  10.555882  28.921480
2296  1   C  4.0  2.988000e+01   7.501028  31.965847
2297  1   C  4.0  3.237000e+01  18.674241  28.921480
2298  1   C  4.0  2.988000e+01  15.619387  31.965847
2299  1   C  4.0  3.237000e+01  12.564532  35.010213
2300  1   C  4.0  2.988000e+01  21.729095  25.877114
2301  1   C  4.0  2.988000e+01  23.737745  31.965847
2302  1   C  4.0  3.237000e+01  20.682891  35.010213
2303  1   C  4.0  2.988000e+01   5.492378  25.877114
2304  1   C  4.0  3.237000e+01   2.437524  28.921480
2305  1   O -2.0  3.172011e+01  22.019861   5.361129
2306  1   O -2.0  3.421011e+01  18.965007   8.405495
2307  1   O -2.0  3.172011e+01  15.910153  11.449862
2308  1   O -2.0  3.421011e+01   0.719640   2.316763
2309  1   O -2.0  3.172011e+01  24.028511  11.449862
2310  1   O -2.0  3.421011e+01   8.837999   2.316763
2311  1   O -2.0  3.172011e+01   5.783144   5.361129
2312  1   O -2.0  3.421011e+01   2.728290   8.405495
2313  1   O -2.0  3.421011e+01  16.956357   2.316763
2314  1   O -2.0  3.172011e+01  13.901503   5.361129
2315  1   O -2.0  3.421011e+01  10.846649   8.405495
2316  1   O -2.0  3.172011e+01   7.791795  11.449862
2317  1   O -2.0  3.301989e+01   3.732615  11.449862
2318  1   O -2.0  3.052989e+01  12.897178   2.316763
2319  1   O -2.0  3.301989e+01   9.842324   5.361129
2320  1   O -2.0  3.052989e+01   6.787470   8.405495
2321  1   O -2.0  3.301989e+01  17.960682   5.361129
2322  1   O -2.0  3.052989e+01  14.905828   8.405495
2323  1   O -2.0  3.301989e+01  11.850974  11.449862
2324  1   O -2.0  3.052989e+01  21.015536   2.316763
2325  1   O -2.0  3.052989e+01  23.024186   8.405495
2326  1   O -2.0  3.301989e+01  19.969332  11.449862
2327  1   O -2.0  3.052989e+01   4.778819   2.316763
2328  1   O -2.0  3.301989e+01   1.723965   5.361129
2329  1   O -2.0  3.366978e+01  22.817178   4.566550
2330  1   O -2.0  3.117978e+01  19.762324   7.610916
2331  1   O -2.0  3.366978e+01  16.707470  10.655282
2332  1   O -2.0  3.117978e+01   1.516957   1.522183
2333  1   O -2.0  3.366978e+01   0.470753  10.655282
2334  1   O -2.0  3.117978e+01   9.635316   1.522183
2335  1   O -2.0  3.366978e+01   6.580461   4.566550
2336  1   O -2.0  3.117978e+01   3.525607   7.610916
2337  1   O -2.0  3.117978e+01  17.753674   1.522183
2338  1   O -2.0  3.366978e+01  14.698820   4.566550
2339  1   O -2.0  3.117978e+01  11.643966   7.610916
2340  1   O -2.0  3.366978e+01   8.589111  10.655282
2341  1   O -2.0  3.052989e+01  14.491812   0.727604
2342  1   O -2.0  3.301989e+01  11.436957   3.771970
2343  1   O -2.0  3.052989e+01   8.382103   6.816336
2344  1   O -2.0  3.301989e+01   5.327249   9.860703
2345  1   O -2.0  3.301989e+01  19.555316   3.771970
2346  1   O -2.0  3.052989e+01  16.500462   6.816336
2347  1   O -2.0  3.301989e+01  13.445607   9.860703
2348  1   O -2.0  3.052989e+01  22.610170   0.727604
2349  1   O -2.0  3.052989e+01   0.263745   6.816336
2350  1   O -2.0  3.301989e+01  21.563966   9.860703
2351  1   O -2.0  3.052989e+01   6.373453   0.727604
2352  1   O -2.0  3.301989e+01   3.318599   3.771970
2353  1   O -2.0  3.421011e+01  20.559641   6.816336
2354  1   O -2.0  3.172011e+01  17.504787   9.860703
2355  1   O -2.0  3.421011e+01   2.314274   0.727604
2356  1   O -2.0  3.172011e+01  23.614495   3.771970
2357  1   O -2.0  3.172011e+01   1.268070   9.860703
2358  1   O -2.0  3.421011e+01  10.432632   0.727604
2359  1   O -2.0  3.172011e+01   7.377778   3.771970
2360  1   O -2.0  3.421011e+01   4.322924   6.816336
2361  1   O -2.0  3.421011e+01  18.550991   0.727604
2362  1   O -2.0  3.172011e+01  15.496137   3.771970
2363  1   O -2.0  3.421011e+01  12.441282   6.816336
2364  1   O -2.0  3.172011e+01   9.386428   9.860703
2365  1   O -2.0  3.107022e+01   4.529932  10.655282
2366  1   O -2.0  3.356022e+01  13.694495   1.522183
2367  1   O -2.0  3.107022e+01  10.639641   4.566550
2368  1   O -2.0  3.356022e+01   7.584786   7.610916
2369  1   O -2.0  3.107022e+01  18.757999   4.566550
2370  1   O -2.0  3.356022e+01  15.703145   7.610916
2371  1   O -2.0  3.107022e+01  12.648291  10.655282
2372  1   O -2.0  3.356022e+01  21.812853   1.522183
2373  1   O -2.0  3.356022e+01  23.821503   7.610916
2374  1   O -2.0  3.107022e+01  20.766649  10.655282
2375  1   O -2.0  3.356022e+01   5.576136   1.522183
2376  1   O -2.0  3.107022e+01   2.521282   4.566550
2377  1   O -2.0  3.172011e+01   9.800445  17.538594
2378  1   O -2.0  3.421011e+01   6.745590  20.582961
2379  1   O -2.0  3.172011e+01   3.690736  23.627327
2380  1   O -2.0  3.421011e+01  12.855299  14.494228
2381  1   O -2.0  3.172011e+01  11.809095  23.627327
2382  1   O -2.0  3.421011e+01  20.973657  14.494228
2383  1   O -2.0  3.172011e+01  17.918803  17.538594
2384  1   O -2.0  3.421011e+01  14.863949  20.582961
2385  1   O -2.0  3.421011e+01   4.736940  14.494228
2386  1   O -2.0  3.172011e+01   1.682086  17.538594
2387  1   O -2.0  3.421011e+01  22.982307  20.582961
2388  1   O -2.0  3.172011e+01  19.927453  23.627327
2389  1   O -2.0  3.301989e+01  15.868274  23.627327
2390  1   O -2.0  3.052989e+01   0.677761  14.494228
2391  1   O -2.0  3.301989e+01  21.977982  17.538594
2392  1   O -2.0  3.052989e+01  18.923128  20.582961
2393  1   O -2.0  3.301989e+01   5.741265  17.538594
2394  1   O -2.0  3.052989e+01   2.686411  20.582961
2395  1   O -2.0  3.301989e+01  23.986632  23.627327
2396  1   O -2.0  3.052989e+01   8.796120  14.494228
2397  1   O -2.0  3.052989e+01  10.804770  20.582961
2398  1   O -2.0  3.301989e+01   7.749915  23.627327
2399  1   O -2.0  3.052989e+01  16.914478  14.494228
2400  1   O -2.0  3.301989e+01  13.859624  17.538594
2401  1   O -2.0  3.366978e+01  10.597761  16.744015
2402  1   O -2.0  3.117978e+01   7.542907  19.788381
2403  1   O -2.0  3.366978e+01   4.488053  22.832748
2404  1   O -2.0  3.117978e+01  13.652616  13.699649
2405  1   O -2.0  3.366978e+01  12.606411  22.832748
2406  1   O -2.0  3.117978e+01  21.770974  13.699649
2407  1   O -2.0  3.366978e+01  18.716120  16.744015
2408  1   O -2.0  3.117978e+01  15.661266  19.788381
2409  1   O -2.0  3.117978e+01   5.534257  13.699649
2410  1   O -2.0  3.366978e+01   2.479403  16.744015
2411  1   O -2.0  3.117978e+01  23.779624  19.788381
2412  1   O -2.0  3.366978e+01  20.724770  22.832748
2413  1   O -2.0  3.052989e+01   2.272395  12.905069
2414  1   O -2.0  3.301989e+01  23.572616  15.949435
2415  1   O -2.0  3.052989e+01  20.517762  18.993802
2416  1   O -2.0  3.301989e+01  17.462908  22.038168
2417  1   O -2.0  3.301989e+01   7.335899  15.949435
2418  1   O -2.0  3.052989e+01   4.281045  18.993802
2419  1   O -2.0  3.301989e+01   1.226191  22.038168
2420  1   O -2.0  3.052989e+01  10.390753  12.905069
2421  1   O -2.0  3.052989e+01  12.399403  18.993802
2422  1   O -2.0  3.301989e+01   9.344549  22.038168
2423  1   O -2.0  3.052989e+01  18.509112  12.905069
2424  1   O -2.0  3.301989e+01  15.454257  15.949435
2425  1   O -2.0  3.421011e+01   8.340224  18.993802
2426  1   O -2.0  3.172011e+01   5.285370  22.038168
2427  1   O -2.0  3.421011e+01  14.449932  12.905069
2428  1   O -2.0  3.172011e+01  11.395078  15.949435
2429  1   O -2.0  3.172011e+01  13.403728  22.038168
2430  1   O -2.0  3.421011e+01  22.568291  12.905069
2431  1   O -2.0  3.172011e+01  19.513437  15.949435
2432  1   O -2.0  3.421011e+01  16.458583  18.993802
2433  1   O -2.0  3.421011e+01   6.331574  12.905069
2434  1   O -2.0  3.172011e+01   3.276720  15.949435
2435  1   O -2.0  3.421011e+01   0.221866  18.993802
2436  1   O -2.0  3.172011e+01  21.522087  22.038168
2437  1   O -2.0  3.107022e+01  16.665591  22.832748
2438  1   O -2.0  3.356022e+01   1.475078  13.699649
2439  1   O -2.0  3.107022e+01  22.775299  16.744015
2440  1   O -2.0  3.356022e+01  19.720445  19.788381
2441  1   O -2.0  3.107022e+01   6.538582  16.744015
2442  1   O -2.0  3.356022e+01   3.483728  19.788381
2443  1   O -2.0  3.107022e+01   0.428874  22.832748
2444  1   O -2.0  3.356022e+01   9.593436  13.699649
2445  1   O -2.0  3.356022e+01  11.602086  19.788381
2446  1   O -2.0  3.107022e+01   8.547232  22.832748
2447  1   O -2.0  3.356022e+01  17.711795  13.699649
2448  1   O -2.0  3.107022e+01  14.656941  16.744015
2449  1   O -2.0  3.172011e+01  21.936103  29.716060
2450  1   O -2.0  3.421011e+01  18.881249  32.760426
2451  1   O -2.0  3.172011e+01  15.826395  35.804792
2452  1   O -2.0  3.421011e+01   0.635882  26.671693
2453  1   O -2.0  3.172011e+01  23.944753  35.804792
2454  1   O -2.0  3.421011e+01   8.754240  26.671693
2455  1   O -2.0  3.172011e+01   5.699386  29.716060
2456  1   O -2.0  3.421011e+01   2.644532  32.760426
2457  1   O -2.0  3.421011e+01  16.872599  26.671693
2458  1   O -2.0  3.172011e+01  13.817745  29.716060
2459  1   O -2.0  3.421011e+01  10.762890  32.760426
2460  1   O -2.0  3.172011e+01   7.708036  35.804792
2461  1   O -2.0  3.301989e+01   3.648857  35.804792
2462  1   O -2.0  3.052989e+01  12.813420  26.671693
2463  1   O -2.0  3.301989e+01   9.758565  29.716060
2464  1   O -2.0  3.052989e+01   6.703711  32.760426
2465  1   O -2.0  3.301989e+01  17.876924  29.716060
2466  1   O -2.0  3.052989e+01  14.822070  32.760426
2467  1   O -2.0  3.301989e+01  11.767215  35.804792
2468  1   O -2.0  3.052989e+01  20.931778  26.671693
2469  1   O -2.0  3.052989e+01  22.940428  32.760426
2470  1   O -2.0  3.301989e+01  19.885574  35.804792
2471  1   O -2.0  3.052989e+01   4.695061  26.671693
2472  1   O -2.0  3.301989e+01   1.640207  29.716060
2473  1   O -2.0  3.366978e+01  22.733420  28.921480
2474  1   O -2.0  3.117978e+01  19.678566  31.965847
2475  1   O -2.0  3.366978e+01  16.623712  35.010213
2476  1   O -2.0  3.117978e+01   1.433199  25.877114
2477  1   O -2.0  3.366978e+01   0.386995  35.010213
2478  1   O -2.0  3.117978e+01   9.551557  25.877114
2479  1   O -2.0  3.366978e+01   6.496703  28.921480
2480  1   O -2.0  3.117978e+01   3.441849  31.965847
2481  1   O -2.0  3.117978e+01  17.669916  25.877114
2482  1   O -2.0  3.366978e+01  14.615061  28.921480
2483  1   O -2.0  3.117978e+01  11.560207  31.965847
2484  1   O -2.0  3.366978e+01   8.505353  35.010213
2485  1   O -2.0  3.052989e+01  14.408053  25.082534
2486  1   O -2.0  3.301989e+01  11.353199  28.126901
2487  1   O -2.0  3.052989e+01   8.298345  31.171267
2488  1   O -2.0  3.301989e+01   5.243491  34.215633
2489  1   O -2.0  3.301989e+01  19.471558  28.126901
2490  1   O -2.0  3.052989e+01  16.416703  31.171267
2491  1   O -2.0  3.301989e+01  13.361849  34.215633
2492  1   O -2.0  3.052989e+01  22.526412  25.082534
2493  1   O -2.0  3.052989e+01   0.179987  31.171267
2494  1   O -2.0  3.301989e+01  21.480208  34.215633
2495  1   O -2.0  3.052989e+01   6.289695  25.082534
2496  1   O -2.0  3.301989e+01   3.234841  28.126901
2497  1   O -2.0  3.421011e+01  20.475883  31.171267
2498  1   O -2.0  3.172011e+01  17.421028  34.215633
2499  1   O -2.0  3.421011e+01   2.230516  25.082534
2500  1   O -2.0  3.172011e+01  23.530737  28.126901
2501  1   O -2.0  3.172011e+01   1.184312  34.215633
2502  1   O -2.0  3.421011e+01  10.348874  25.082534
2503  1   O -2.0  3.172011e+01   7.294020  28.126901
2504  1   O -2.0  3.421011e+01   4.239166  31.171267
2505  1   O -2.0  3.421011e+01  18.467233  25.082534
2506  1   O -2.0  3.172011e+01  15.412378  28.126901
2507  1   O -2.0  3.421011e+01  12.357524  31.171267
2508  1   O -2.0  3.172011e+01   9.302670  34.215633
2509  1   O -2.0  3.107022e+01   4.446174  35.010213
2510  1   O -2.0  3.356022e+01  13.610736  25.877114
2511  1   O -2.0  3.107022e+01  10.555882  28.921480
2512  1   O -2.0  3.356022e+01   7.501028  31.965847
2513  1   O -2.0  3.107022e+01  18.674241  28.921480
2514  1   O -2.0  3.356022e+01  15.619387  31.965847
2515  1   O -2.0  3.107022e+01  12.564532  35.010213
2516  1   O -2.0  3.356022e+01  21.729095  25.877114
2517  1   O -2.0  3.356022e+01  23.737745  31.965847
2518  1   O -2.0  3.107022e+01  20.682891  35.010213
2519  1   O -2.0  3.356022e+01   5.492378  25.877114
2520  1   O -2.0  3.107022e+01   2.437524  28.921480
